#atom_style bond #no stiffness
atom_style angle #with stiffness

boundary        p p p
###
# Pair interactions require lists of neighbours to be calculated
###

#neighbor 0.3 bin
neighbor 4 bin

neigh_modify every 1 delay 1 check yes
atom_modify sort 0 0
### Generate RESTART file, SPECIAL format, not a .txt file ###
### Useful if simulation crashes ###

restart 1000000 N1B4/trial2/restarts2/$f.restart
restart 1000000 N1B4/trial2/restarts2/bb401nuc1bl200bn4d30tot800V2.restart
#############################



### READ "start" data file ###

read_data N1B4/trial2/dats2/$f.dat
read_data N1B4/trial2/dats2/bb401nuc1bl200bn4d30tot800V2.dat
Reading data file ...
  orthogonal box = (-1000 -1000 -1000) to (1000 1000 1000)
  1 by 1 by 1 MPI processor grid
  reading atoms ...
  801 atoms
  scanning bonds ...
  3 = max bonds/atom
  scanning angles ...
  6 = max angles/atom
  reading bonds ...
  800 bonds
  reading angles ...
  802 angles
Finding 1-2 1-3 1-4 neighbors ...
  special bond factors lj:    0        0        0       
  special bond factors coul:  0        0        0       
     4 = max # of 1-2 neighbors
     4 = max # of 1-3 neighbors
     8 = max # of 1-4 neighbors
    12 = max # of special neighbors
  special bonds CPU = 0.002 seconds
  read_data CPU = 0.188 seconds

######################

### READ "REstart" data file ###

######################



###
# Define groups (atom type 1 is group 'all')
###
group all type 1
801 atoms in group all


###
# Dump configs - "simple dumpings"
###

###
# Dump configs + box coords
###

dump   1   all   custom   1000  N1B4/trial2/trjs2/$f.lammpstrj  id  x y z  ix iy iz
dump   1   all   custom   1000  N1B4/trial2/trjs2/bb401nuc1bl200bn4d30tot800V2.lammpstrj  id  x y z  ix iy iz
dump_modify   1   format line "%d %.5f %.5f %.5f %d %d %d"

########################################################################


###################################################################
# Stiffness term
#
# E = K * (1+cos(theta)), K>0
#
angle_style   cosine
#change this coefficient to change stiffness (e.g. 1,5,10)
angle_coeff   1 1.0
###################################################################

###################################################################
# Pair interaction between non-bonded atoms
#
#  Lennard-Jones 12-6 potential with cutoff:
#  potential E=4epsilon[ (sigma/r)^12 - (sigma/r)^6]  for r<r_cut
#
#  1.12246 = 2^(1/6) is the minimum of the potential


pair_style      lj/cut 1.12246152962189
#pair_style      lj/cut 3

#
#  pair_modify shift yes adds a constant to the potential such

#  that E(r_cut)=0. Forces remains unchanged.
#

pair_modify     shift yes

#
#  pair_coeff for lj/cut, specify 4:
#    * atom type interacting with
#    * atom type
#    * epsilon (energy units)
#    * sigma (distance units)
#

pair_coeff      1 1 1.0 1.0
###################################################################

###################################################################
# Pair interaction between non-bonded atoms
#
#  soft potential, for PUSHING apart overlapping atoms
#  potential E=A*(1 + cos(pi*r/r_c))
#
#  1.12246 = 2^(1/6) is the cut-off r_c

#pair_style     soft 1.12246152962189

#
#  pair_coeff for soft, specify 3:
#    * atom type interacting with
#    * atom type
#    * A
#
#

#pair_coeff      1 1 100.0
###################################################################

###################################################################
# Pair interaction between bonded atoms
#
# Fene potential + Lennard Jones 12-6:

#
#  E= - 0.5 K R0^2 ln[ 1- (r/R0)^2]
#     + 4epsilon[ (sigma/r)^12 - (sigma/r)^6] + epsilon
#

bond_style   fene


#
# For style fene, specify:
#   * bond type
#   * K (energy/distance^2)
#   * R0 (distance)
#   * epsilon (energy)  (LJ component)
#   * sigma (distance)  (LJ component)
#


special_bonds fene #<=== I M P O R T A N T (new command)
Finding 1-2 1-3 1-4 neighbors ...
  special bond factors lj:    0        1        1       
  special bond factors coul:  0        1        1       
     4 = max # of 1-2 neighbors
    12 = max # of special neighbors
  special bonds CPU = 0.001 seconds

bond_coeff   1   30   2   1.0   1.0


###################################################

###################################################################
# Pair interaction between bonded atoms
#
# Harmonic potential:
#
#  E= K * (R-R0)^2
#

#bond_style   harmonic

#
# For style harmonic, specify:
#   * bond type
#   * K (energy/distance^2)
#   * R0 (distance)
#

#bond_coeff   1   60.0   1.0
#bond_coeff   2   harmonic 0.1   1.0

###################################################
compute 1 all gyration
variable rog equal c_1
#compute 2 all coord/atom cutoff 1.1

#dump 2 all custom 10000 contact_number.dump id c_2


###
# Set up fixes
###
thermo_style   custom   step  temp enthalpy c_1
fix 1 all nve   ###NVE ensemble

fix 2 all   langevin   1.0 1.0 1.0  778655   ###Langevin integrator Tstart Tstop 1/friction rndseed


##### Sample thermodynamic info  (temperature, energy, pressure, etc.) #####
thermo 1000









############################################################################

###
# set timestep of integrator

timestep 0.01

###
# run integration for a number of steps
###
#run 0
#variable r equal c_1
#if "$r < 63.1" then "quit 1"

# lj potential minimum, cause molecule to explore
run 100000
Generated 0 of 0 mixed pair_coeff terms from geometric mixing rule
Last active /omp style is angle_style cosine/omp
Neighbor list info ...
  update: every = 1 steps, delay = 1 steps, check = yes
  max neighbors/atom: 2000, page size: 100000
  master list distance cutoff = 5.1224615
  ghost atom cutoff = 5.1224615
  binsize = 2.5612308, bins = 781 781 781
  1 neighbor lists, perpetual/occasional/extra = 1 0 0
  (1) pair lj/cut/omp, perpetual
      attributes: half, newton on, omp
      pair build: half/bin/newton/omp
      stencil: half/bin/3d
      bin: standard
WARNING: Communication cutoff 5.12246152962189 is shorter than a bond length based estimate of 5.455. This may lead to errors. (src/comm.cpp:723)
Per MPI rank memory allocation (min/avg/max) = 1862 | 1862 | 1862 Mbytes
   Step          Temp         Enthalpy         c_1      
         0   0              13.246538      105.18155    
      1000   1.0022113      18.025196      104.57427    
      2000   1.0222443      17.936999      103.78892    
      3000   1.0059572      18.707628      102.86442    
      4000   0.94979962     18.255942      102.16104    
      5000   0.98845341     18.461807      101.57645    
      6000   0.92951381     18.780621      101.06997    
      7000   0.99409554     18.586866      100.62521    
      8000   1.031784       18.915519      99.915908    
      9000   0.98927265     18.995981      99.434872    
     10000   0.94376166     19.143591      99.171773    
     11000   0.97966074     18.956173      98.846934    
     12000   1.022089       19.197914      98.549606    
     13000   0.99725954     18.562583      97.959322    
     14000   1.0146654      19.022728      97.699237    
     15000   1.0067706      19.329385      97.608664    
     16000   0.98768203     18.732358      97.278678    
     17000   0.98790873     19.003771      96.971321    
     18000   0.98077017     18.862803      96.50456     
     19000   1.0109649      19.257925      96.24526     
     20000   1.0038333      19.995226      95.941554    
     21000   0.98649718     19.056416      95.649141    
     22000   1.0183681      18.883949      95.441794    
     23000   1.0115107      19.535358      95.194084    
     24000   1.0159111      19.534032      94.77329     
     25000   1.007236       19.912388      94.393911    
     26000   0.99166391     18.952851      94.121138    
     27000   0.9670634      19.356994      93.926023    
     28000   0.98523934     20.067913      93.568928    
     29000   1.0394733      19.738726      93.051102    
     30000   1.0333407      19.302583      92.911855    
     31000   1.0232172      19.701255      92.414521    
     32000   1.039756       19.557782      92.109897    
     33000   1.0021707      19.381658      91.962529    
     34000   1.0079383      19.531604      91.989522    
     35000   1.0332319      19.017127      91.660972    
     36000   0.98814245     19.777944      91.219201    
     37000   1.0272078      19.452755      91.266685    
     38000   0.99346862     19.561829      91.098097    
     39000   1.0135005      19.984488      90.851643    
     40000   0.98045612     19.841829      90.676573    
     41000   0.98609989     19.583038      90.23727     
     42000   0.96493839     19.43167       90.142641    
     43000   1.0313913      19.826574      89.925785    
     44000   0.94042252     19.503185      89.869232    
     45000   1.0259565      19.6256        89.68724     
     46000   0.99396926     19.408307      89.378849    
     47000   0.96789412     19.692782      89.333505    
     48000   0.97038972     19.548999      88.930378    
     49000   1.0782485      20.367457      88.714061    
     50000   0.97814333     18.86203       88.466169    
     51000   0.9989927      19.900765      88.032133    
     52000   1.0092541      19.606127      87.804694    
     53000   1.0349102      19.948469      87.618569    
     54000   1.016152       19.970038      87.131813    
     55000   0.99471881     19.845362      86.726265    
     56000   0.96054539     19.703657      86.537018    
     57000   1.0144408      19.95252       86.356107    
     58000   1.0348384      20.135716      85.962004    
     59000   0.96834589     19.544401      85.644154    
     60000   1.0382844      20.061379      85.279453    
     61000   1.0123335      20.083502      84.779382    
     62000   0.96807468     19.630732      84.547067    
     63000   1.0105128      20.290772      84.418799    
     64000   0.98973379     19.958959      84.419432    
     65000   0.96484354     19.904905      84.311477    
     66000   0.95570763     19.813431      84.158555    
     67000   1.0362413      20.245143      83.957769    
     68000   1.0135811      20.131974      83.816006    
     69000   1.033161       20.432573      83.584873    
     70000   1.0097631      19.43318       83.529256    
     71000   0.97718336     19.801451      83.366671    
     72000   1.0055176      20.077089      83.141844    
     73000   0.92759591     20.078963      83.017019    
     74000   1.0354982      19.957672      82.977528    
     75000   1.0113953      19.954754      82.905835    
     76000   0.97666505     20.002207      82.541966    
     77000   1.0576524      20.359613      82.189421    
     78000   1.0289162      19.942486      82.126408    
     79000   0.981584       20.669981      81.86009     
     80000   1.0138246      19.578844      81.572731    
     81000   1.0376752      19.918644      81.61167     
     82000   1.0495983      20.151291      81.555433    
     83000   0.98089446     20.285237      81.470616    
     84000   0.99508109     20.132803      81.510481    
     85000   1.0356332      20.219702      81.171779    
     86000   0.95639552     20.277625      81.11361     
     87000   0.98397458     19.42055       80.972666    
     88000   1.043174       20.352165      80.772219    
     89000   0.97812889     19.791048      80.819452    
     90000   0.97384432     19.82204       80.497905    
     91000   1.0049346      20.048603      80.620775    
     92000   1.0128732      21.044867      80.476414    
     93000   0.99829057     20.104892      80.356976    
     94000   0.97676843     20.262697      80.382117    
     95000   0.99735852     20.516028      80.370992    
     96000   1.0415302      19.886126      80.347044    
     97000   0.96683773     20.440251      80.24066     
     98000   1.003505       20.462635      80.43996     
     99000   0.99596267     20.132032      80.29015     
    100000   0.97880903     20.387924      80.116312    
Loop time of 273.192 on 2 procs for 100000 steps with 801 atoms

Performance: 316261.262 tau/day, 366.043 timesteps/s
103.7% CPU use with 1 MPI tasks x 2 OpenMP threads

MPI task timing breakdown:
Section |  min time  |  avg time  |  max time  |%varavg| %total
---------------------------------------------------------------
Pair    | 1.0435     | 1.0435     | 1.0435     |   0.0 |  0.38
Bond    | 2.0961     | 2.0961     | 2.0961     |   0.0 |  0.77
Neigh   | 264.78     | 264.78     | 264.78     |   0.0 | 96.92
Comm    | 0.02918    | 0.02918    | 0.02918    |   0.0 |  0.01
Output  | 0.31967    | 0.31967    | 0.31967    |   0.0 |  0.12
Modify  | 4.6263     | 4.6263     | 4.6263     |   0.0 |  1.69
Other   |            | 0.3002     |            |       |  0.11

Nlocal:            801 ave         801 max         801 min
Histogram: 1 0 0 0 0 0 0 0 0 0
Nghost:              0 ave           0 max           0 min
Histogram: 1 0 0 0 0 0 0 0 0 0
Neighs:           4943 ave        4943 max        4943 min
Histogram: 1 0 0 0 0 0 0 0 0 0

Total # of neighbors = 4943
Ave neighs/atom = 6.1710362
Ave special neighs/atom = 1.9975031
Neighbor list builds = 1084
Dangerous builds = 0

# Replace lj potential, now collapse
pair_style      lj/cut 3

# Cutoff simul when gyration under 7
# Variable created with equal requires v_ + 'name'
fix 3 all halt 1000 v_rog < 7

run 5000000
Generated 0 of 0 mixed pair_coeff terms from geometric mixing rule
Last active /omp style is angle_style cosine/omp
Per MPI rank memory allocation (min/avg/max) = 1862 | 1862 | 1862 Mbytes
   Step          Temp         Enthalpy         c_1      
    100000   0.97880903     19.753816      80.116312    
    101000   1.0364311      19.698167      79.717356    
    102000   1.0287731      19.563937      79.329414    
    103000   0.987872       19.311245      78.983592    
    104000   1.060601       19.544752      78.561356    
    105000   1.0540306      19.535164      78.317165    
    106000   1.0292028      19.446757      77.981194    
    107000   1.047131       19.311583      77.667355    
    108000   1.0130478      19.132461      77.427253    
    109000   1.0277899      18.740394      77.203464    
    110000   1.0173373      19.412859      76.899436    
    111000   0.99437279     19.759173      76.63315     
    112000   1.0236893      19.559367      76.490656    
    113000   0.99671575     19.136934      76.2269      
    114000   1.0197953      19.364702      75.974384    
    115000   0.9742312      18.719828      76.124351    
    116000   0.98093265     19.378428      76.102293    
    117000   1.0137705      18.675195      75.938665    
    118000   0.99534305     19.50517       75.990388    
    119000   1.0361315      19.316254      75.709333    
    120000   1.0429413      19.693801      75.619129    
    121000   0.97716501     19.76166       75.33462     
    122000   1.0366716      19.334519      74.96854     
    123000   1.0341067      19.524023      74.891235    
    124000   1.035764       19.161229      74.68091     
    125000   0.97700303     18.820767      74.361931    
    126000   0.95985459     19.271229      74.142807    
    127000   1.0160763      19.545936      74.031422    
    128000   1.0360048      19.449981      73.903809    
    129000   1.0026108      19.130883      73.859091    
    130000   1.0028984      19.517071      73.448113    
    131000   0.98102042     18.517517      73.161882    
    132000   1.0197671      19.889138      72.921426    
    133000   0.9816303      19.680003      72.522762    
    134000   0.96932729     18.789985      72.466381    
    135000   0.95882946     18.869997      72.382742    
    136000   0.99987289     18.515727      72.030541    
    137000   1.0609539      19.124156      71.834766    
    138000   1.0203035      19.677324      71.968654    
    139000   1.020832       19.021097      72.080613    
    140000   0.9473682      18.755029      72.10132     
    141000   0.98314181     19.161292      71.880542    
    142000   0.96672467     18.928871      71.677785    
    143000   0.99718104     19.319785      71.143046    
    144000   0.95186468     19.01244       70.778612    
    145000   1.0375938      18.975158      70.603893    
    146000   0.99001948     19.100357      70.326719    
    147000   1.0228406      18.810961      69.984494    
    148000   0.9973393      18.867315      69.695876    
    149000   1.0274066      19.041576      69.616746    
    150000   1.0172668      18.810378      69.355284    
    151000   1.0228251      18.498838      69.173998    
    152000   1.0422475      19.639174      69.063883    
    153000   0.98308753     19.459199      68.766685    
    154000   1.0082424      19.250097      68.557258    
    155000   0.9788376      19.193971      68.575197    
    156000   0.98625353     19.171076      68.16891     
    157000   0.99819266     18.787819      67.988343    
    158000   1.0533732      19.211406      67.648617    
    159000   0.95882154     19.46794       67.469909    
    160000   0.97213684     19.031772      67.582215    
    161000   0.9764472      19.022018      67.360481    
    162000   1.0556271      18.757358      67.24512     
    163000   1.0143257      18.616179      67.132941    
    164000   1.0447093      18.924398      67.003227    
    165000   1.0224809      18.861036      67.004191    
    166000   0.99844283     18.795588      66.876165    
    167000   1.0051796      18.409172      66.95754     
    168000   1.0474562      18.956971      66.785688    
    169000   0.97595897     18.754891      66.482777    
    170000   0.94696411     19.359849      66.448139    
    171000   1.0070428      19.23981       66.135551    
    172000   0.99118694     19.088671      65.852846    
    173000   1.0101434      19.428008      65.74765     
    174000   0.99468888     19.248407      65.543135    
    175000   1.050327       18.832754      65.40023     
    176000   0.98401385     18.769317      65.177311    
    177000   0.98061005     18.685063      65.061328    
    178000   1.0132355      18.37389       64.790663    
    179000   1.0648913      19.688143      64.490303    
    180000   0.99535596     18.933685      63.978255    
    181000   0.99779499     19.237721      63.764364    
    182000   1.0271184      18.867477      63.736732    
    183000   0.97986127     18.617454      63.65891     
    184000   0.98245966     18.954259      63.657895    
    185000   1.0219055      19.2308        63.637218    
    186000   1.0204524      19.177933      63.559057    
    187000   1.0173691      19.227546      63.33533     
    188000   0.99668875     19.218512      62.963934    
    189000   1.0289021      19.265596      62.74502     
    190000   1.0131589      18.871735      62.595991    
    191000   1.0239117      19.24828       62.234308    
    192000   1.0206804      18.950444      62.235902    
    193000   1.0146748      19.023524      61.863105    
    194000   1.008482       19.306579      61.69587     
    195000   0.99647685     19.279343      61.435125    
    196000   0.97790088     18.35274       61.573764    
    197000   1.0052959      17.958191      61.612212    
    198000   1.0009822      19.007448      61.454756    
    199000   1.0146788      19.393569      61.50888     
    200000   0.98716381     19.063809      61.287682    
    201000   1.0131733      18.694756      61.057558    
    202000   0.98330421     18.719617      61.141254    
    203000   1.0218728      18.267693      61.037011    
    204000   1.0043589      19.024841      60.620907    
    205000   1.0250297      19.278834      60.432713    
    206000   1.0162413      18.79353       60.318578    
    207000   1.017688       19.077525      60.117292    
    208000   0.97698261     18.336331      59.946961    
    209000   1.0073707      18.583412      59.937476    
    210000   1.036916       18.997156      59.740516    
    211000   1.017178       18.871329      59.452457    
    212000   0.97112417     19.077724      59.336596    
    213000   1.0514033      18.7552        59.196436    
    214000   0.99053982     18.914174      59.130952    
    215000   0.98388873     18.536826      58.995652    
    216000   0.98178892     18.565097      58.970103    
    217000   1.0079204      19.024032      58.82163     
    218000   1.0473899      18.739713      58.781868    
    219000   0.97695958     18.51197       58.594107    
    220000   1.0052279      19.357142      58.650795    
    221000   1.0271991      18.570279      58.435703    
    222000   1.0099944      18.9938        58.460072    
    223000   1.0693895      18.977049      58.18412     
    224000   0.96985231     18.718101      58.118661    
    225000   0.97618962     18.094208      58.145025    
    226000   1.0186096      18.1461        57.964382    
    227000   0.97703557     18.865462      57.697563    
    228000   1.0003283      18.558877      57.576654    
    229000   1.0307875      18.531689      57.386896    
    230000   0.99247101     18.209449      57.474807    
    231000   1.0378286      18.840822      57.31589     
    232000   0.96339966     18.347646      57.000535    
    233000   1.0187395      18.729422      56.890202    
    234000   0.98635229     18.35364       56.912549    
    235000   0.9910247      18.612784      56.723492    
    236000   0.99844319     19.000248      56.482709    
    237000   0.98138873     19.254208      56.077756    
    238000   1.0577666      18.646252      56.008772    
    239000   1.0243943      18.477489      55.786575    
    240000   1.0017718      18.250967      55.722699    
    241000   0.95832726     18.493794      55.744621    
    242000   1.057438       18.81186       55.553449    
    243000   1.0113488      18.333847      55.28679     
    244000   1.0508138      18.680237      54.891734    
    245000   0.95282497     18.378296      54.691025    
    246000   0.98733208     18.473598      54.520199    
    247000   0.97737019     18.356554      54.194069    
    248000   0.93039828     18.617989      54.053937    
    249000   0.98523343     18.864001      54.172206    
    250000   0.99621876     18.648583      54.14534     
    251000   0.99444325     18.442388      53.719484    
    252000   1.0186388      18.612673      53.570239    
    253000   0.99345604     18.768707      53.541924    
    254000   0.94914613     18.038181      53.383098    
    255000   0.99134294     18.819379      52.919374    
    256000   0.97071602     18.024307      52.509291    
    257000   0.99654335     18.142312      52.431736    
    258000   1.0363529      18.561534      52.216401    
    259000   1.0226285      18.562765      52.081816    
    260000   1.0028485      18.643044      52.051985    
    261000   1.0456756      19.107637      52.133788    
    262000   0.99479579     18.616929      51.818219    
    263000   0.98771779     18.307127      51.566306    
    264000   0.99760504     19.009583      51.138945    
    265000   0.96002887     18.539472      50.887901    
    266000   1.006529       18.273233      50.779502    
    267000   0.98882597     18.279251      50.442315    
    268000   1.0501239      18.687774      50.269869    
    269000   0.98997276     18.532094      50.340752    
    270000   0.95535607     18.086577      50.37344     
    271000   0.96696907     18.838295      50.191583    
    272000   0.98798686     18.279308      50.230928    
    273000   1.065089       18.629205      50.051099    
    274000   0.99563983     19.108752      50.274477    
    275000   0.96056733     18.213303      50.134498    
    276000   1.0709775      18.737712      50.330293    
    277000   1.0062759      18.61948       50.047016    
    278000   1.014338       19.081059      49.899145    
    279000   1.0179007      18.398825      49.494996    
    280000   1.0229453      18.774033      49.225626    
    281000   0.9916622      18.522837      49.074536    
    282000   1.0249072      18.507078      48.850824    
    283000   1.0525958      19.344159      48.719396    
    284000   0.96901754     18.931883      48.516083    
    285000   1.0133415      18.572319      48.476012    
    286000   1.0446175      19.190486      48.486856    
    287000   1.0333729      18.631685      48.204888    
    288000   0.98467979     18.838654      47.929613    
    289000   1.0054143      18.755919      47.852312    
    290000   0.97439303     18.66771       47.78866     
    291000   1.0497141      18.638122      47.726092    
    292000   0.97954323     18.923404      47.420801    
    293000   0.94478385     17.929619      47.280394    
    294000   1.0076092      18.116052      46.954349    
    295000   1.0210599      17.766066      46.852414    
    296000   1.0506291      18.580253      46.595527    
    297000   1.0560834      18.49293       46.458563    
    298000   0.98949845     17.977811      46.56514     
    299000   0.97472792     18.231707      46.533821    
    300000   1.001104       18.298209      46.413908    
    301000   0.98431438     18.269355      46.283205    
    302000   1.0213152      18.797887      46.217309    
    303000   1.0211345      18.645341      45.871167    
    304000   0.98648273     17.826585      45.796577    
    305000   0.96756149     18.774983      45.281403    
    306000   0.9918802      18.260574      44.951333    
    307000   1.0272095      18.415098      44.791924    
    308000   1.0169507      18.587824      44.609111    
    309000   0.98286886     18.637967      44.401069    
    310000   0.99372379     18.303068      44.209087    
    311000   0.97238892     17.847833      44.00675     
    312000   1.0169565      18.118993      43.934763    
    313000   0.97252769     18.653976      43.77173     
    314000   0.93379088     18.130975      43.629534    
    315000   1.0164059      18.702687      43.202243    
    316000   1.054753       18.392485      43.008863    
    317000   0.97980103     18.496006      42.802516    
    318000   0.98539677     18.489906      42.82994     
    319000   0.93952666     18.383282      42.861044    
    320000   1.0389008      18.638576      42.855838    
    321000   0.98630687     18.482387      42.768284    
    322000   1.0095371      18.781053      42.720721    
    323000   1.0063006      18.477642      42.473544    
    324000   1.0147705      18.175043      42.197654    
    325000   0.98810394     18.658074      42.053361    
    326000   1.0215777      17.994729      41.908874    
    327000   1.0832327      18.033529      41.603124    
    328000   0.99657857     18.546827      41.263397    
    329000   1.0292268      17.971102      41.469635    
    330000   1.0447324      18.160717      41.309865    
    331000   0.94544451     18.111686      41.337925    
    332000   1.0003758      18.633052      41.264189    
    333000   1.0793708      18.605245      41.156745    
    334000   1.0192271      18.643294      40.968757    
    335000   1.0054921      18.182655      40.874357    
    336000   1.0501699      18.028786      40.627799    
    337000   1.028005       18.045565      40.355996    
    338000   1.0110995      18.40793       40.192633    
    339000   0.9872086      17.862034      40.169104    
    340000   1.0321399      17.95863       39.997784    
    341000   1.0279805      18.362669      39.743507    
    342000   1.0064161      17.650399      39.231978    
    343000   1.0206436      18.289239      38.952979    
    344000   0.95892218     18.897242      38.814815    
    345000   0.95480705     17.485913      38.701447    
    346000   1.0047813      18.621418      38.536135    
    347000   0.98448035     18.233043      38.672894    
    348000   1.0098384      18.145523      38.525496    
    349000   1.0487156      18.735101      38.311468    
    350000   1.0217438      18.556018      38.416284    
    351000   1.0371729      18.38577       38.322712    
    352000   0.96898489     18.726423      38.120268    
    353000   1.0333443      17.974354      37.690576    
    354000   1.0481955      17.603272      37.500061    
    355000   0.98262371     17.767756      37.169456    
    356000   0.94235211     17.52736       37.311115    
    357000   0.94108912     17.948359      37.220521    
    358000   0.98547984     18.071485      37.186344    
    359000   1.0082095      18.112401      37.356898    
    360000   1.0654338      18.632643      37.109828    
    361000   1.0816503      17.854889      36.769198    
    362000   0.97660136     18.069313      36.542234    
    363000   0.99930402     18.950516      36.566412    
    364000   1.052056       18.666316      36.287125    
    365000   1.0101164      17.722745      35.997943    
    366000   1.0289627      18.32263       35.726993    
    367000   1.0359319      18.521526      35.749814    
    368000   0.99940913     18.308608      35.666556    
    369000   1.0045751      17.79491       35.627277    
    370000   0.94303162     18.233154      35.460502    
    371000   1.0191417      18.471086      35.585325    
    372000   0.9699377      18.450607      35.288648    
    373000   1.0822162      18.332249      34.937654    
    374000   0.96377824     17.894612      34.617625    
    375000   0.98931607     18.267597      34.50538     
    376000   0.99428644     17.726939      33.911932    
    377000   0.9927922      18.146938      33.696152    
    378000   0.98521111     17.592355      33.644607    
    379000   1.0333575      18.643552      33.800216    
    380000   0.93254726     17.784021      33.57391     
    381000   0.99255454     17.946216      33.437433    
    382000   1.0534995      18.645738      32.991602    
    383000   0.99311887     17.633941      33.104524    
    384000   0.95654327     17.664441      32.951255    
    385000   1.077112       19.130124      32.727002    
    386000   0.99404333     17.935552      32.682387    
    387000   0.97365643     18.440859      32.41588     
    388000   0.97971866     17.398191      32.103249    
    389000   0.99442839     19.004888      32.076165    
    390000   1.0028026      18.120565      31.799197    
    391000   1.0204153      18.313474      31.456487    
    392000   1.0059583      18.101209      31.566291    
    393000   0.93209962     17.982922      31.60354     
    394000   0.97555687     18.099149      31.238698    
    395000   1.049496       17.41228       31.072886    
    396000   0.96134035     18.09959       30.969478    
    397000   1.0601896      18.365539      30.860248    
    398000   1.0019614      17.807826      30.706578    
    399000   0.93392096     17.993853      30.604768    
    400000   0.96664175     17.940429      30.803498    
    401000   0.99179543     17.846083      30.60891     
    402000   1.0376866      18.521708      30.667256    
    403000   1.0132068      18.203774      30.393913    
    404000   1.0109883      17.419855      30.089428    
    405000   1.0144262      18.22416       30.119301    
    406000   1.0573637      18.397425      30.181136    
    407000   0.94796937     17.959382      30.010534    
    408000   1.0094028      17.816329      29.870167    
    409000   0.99302534     17.763934      29.680206    
    410000   0.99606885     17.946218      29.459517    
    411000   1.0032853      17.741839      29.299277    
    412000   1.0167119      18.285906      29.332001    
    413000   1.0183899      18.242985      28.881568    
    414000   0.97799199     17.936755      28.794111    
    415000   1.0008361      17.672734      28.514613    
    416000   0.98255194     18.028416      28.463937    
    417000   1.0338982      18.317805      28.239554    
    418000   0.97506293     18.252769      27.844554    
    419000   0.95088979     17.535157      27.533507    
    420000   0.98143715     17.740716      27.370689    
    421000   0.95120256     18.277102      26.961697    
    422000   1.0149766      18.280864      26.930432    
    423000   1.0137589      18.556382      26.680895    
    424000   0.97022025     17.820525      26.577388    
    425000   1.0258587      18.096516      26.309129    
    426000   1.0816678      18.49286       26.242816    
    427000   1.0388893      17.773906      26.029753    
    428000   0.93524291     17.880931      26.165455    
    429000   0.96147394     17.548225      25.945334    
    430000   1.0236883      17.515586      25.686619    
    431000   0.99467327     17.516878      25.648032    
    432000   1.0245473      18.71553       25.573933    
    433000   1.0178342      17.662707      25.491105    
    434000   0.98519138     18.176103      25.040289    
    435000   1.0376644      18.397592      24.847869    
    436000   0.96566115     17.758888      24.57287     
    437000   0.99772245     18.064219      24.510778    
    438000   0.99252771     18.183664      24.301896    
    439000   1.0311403      18.163444      24.148213    
    440000   1.0141704      17.631408      23.749142    
    441000   0.97704375     17.475609      23.688096    
    442000   1.0092085      17.345693      24.023193    
    443000   1.0311968      18.203048      23.941862    
    444000   1.0089817      17.967437      23.755306    
    445000   1.0425664      18.262729      23.63723     
    446000   1.0289313      17.980312      23.462491    
    447000   1.0269886      18.501214      23.239089    
    448000   1.0120431      18.550939      23.190883    
    449000   0.99454353     18.087921      23.045676    
    450000   1.0431747      17.75645       22.911822    
    451000   1.0115738      18.317501      22.587769    
    452000   1.0491245      17.592931      22.548877    
    453000   1.0193634      17.639847      22.349798    
    454000   1.0145718      17.571046      22.108885    
    455000   1.0178307      17.984384      21.657167    
    456000   0.9816725      18.306278      21.321314    
    457000   1.0062249      17.213789      21.084174    
    458000   0.9501668      18.104432      20.653683    
    459000   0.97008775     18.297849      20.276276    
    460000   1.1076826      17.533977      20.119707    
    461000   1.0103828      18.113637      19.929583    
    462000   1.0223166      18.102837      19.80812     
    463000   0.98857402     17.791179      19.629475    
    464000   0.9887365      17.34089       19.210773    
    465000   0.97522161     17.98552       19.181057    
    466000   0.96589592     18.200744      18.810034    
    467000   1.0025104      17.636052      18.699786    
    468000   1.0007105      17.912618      18.659559    
    469000   1.0160695      17.909341      18.436487    
    470000   0.99329493     17.361845      18.100243    
    471000   0.98216296     17.257534      18.08701     
    472000   0.98318132     18.176103      18.23033     
    473000   0.99802841     18.013596      17.707402    
    474000   0.95235328     17.75432       17.393571    
    475000   0.99562049     17.304344      17.262864    
    476000   0.97470068     17.667777      17.090546    
    477000   0.97602179     17.300002      16.802789    
    478000   1.040744       17.582932      16.923617    
    479000   1.0416751      18.047889      16.818131    
    480000   0.98674871     17.744032      16.541559    
    481000   0.99613017     18.058421      16.519215    
    482000   0.99305297     17.622812      16.231527    
    483000   1.020509       17.928701      16.211002    
    484000   1.0319167      18.527467      15.900242    
    485000   1.0002161      18.284076      15.678916    
    486000   0.96625112     17.966638      15.498838    
    487000   0.9968484      17.916682      15.214071    
    488000   0.95634362     17.012709      15.161547    
    489000   1.0452367      17.574927      14.979031    
    490000   1.0503364      18.241766      14.679348    
    491000   1.0156893      17.992896      14.361284    
    492000   1.0343871      17.80946       14.350574    
    493000   0.95586946     17.060901      14.135027    
    494000   1.0166755      18.013012      13.972078    
    495000   0.95834037     17.676177      13.778218    
    496000   0.97039138     17.43208       13.844024    
    497000   0.96786104     17.463168      13.849602    
    498000   1.013529       17.60557       13.85655     
    499000   0.96578912     17.014993      13.597763    
    500000   1.0966241      18.026959      13.459627    
    501000   1.0033011      17.695891      13.570907    
    502000   0.99654678     17.857428      13.573107    
    503000   0.96620967     17.187914      13.792439    
    504000   0.98491258     18.619534      13.887223    
    505000   0.99022241     17.386806      14.012114    
    506000   0.97424489     17.306909      14.250755    
    507000   1.0217039      17.905747      14.200075    
    508000   0.95141633     18.422112      14.028721    
    509000   1.0696233      18.56245       13.915329    
    510000   1.0443209      18.053573      13.680036    
    511000   1.0047279      17.436297      13.436857    
    512000   1.0534436      17.555212      13.288579    
    513000   1.0030872      17.386892      13.390644    
    514000   0.99707563     17.668513      13.271857    
    515000   0.99276114     17.438782      13.03766     
    516000   0.96529063     17.014245      12.596309    
    517000   1.0139286      18.335074      12.393085    
    518000   1.0032198      18.172198      12.326247    
    519000   1.008623       16.96739       12.275884    
    520000   0.98606823     17.756861      12.297329    
    521000   1.0442337      17.533763      12.064611    
    522000   1.0075283      17.187691      11.974057    
    523000   1.0323453      17.953336      11.768809    
    524000   1.0188653      18.106558      11.584331    
    525000   1.0123295      17.775518      11.389508    
    526000   0.94139458     17.028619      11.179886    
    527000   0.98042163     17.705812      11.030484    
    528000   0.97640213     17.202243      10.969357    
    529000   1.0228587      17.802262      10.676283    
    530000   0.97887248     17.62977       10.650517    
    531000   1.0697834      17.309337      10.550102    
    532000   0.96268261     18.002513      10.471956    
    533000   0.99127121     17.308641      10.496352    
    534000   0.96193277     17.754548      10.457494    
    535000   0.92671814     16.595285      10.1255      
    536000   1.0041787      16.928862      9.9188488    
    537000   1.0353914      16.429073      9.6617451    
    538000   1.0233835      17.508258      9.4923897    
    539000   1.013393       17.076287      9.1547004    
    540000   1.0133487      17.178933      9.1448977    
    541000   1.0333112      17.365674      9.1346247    
    542000   0.97539112     17.421137      8.923341     
    543000   0.99302767     17.449061      8.7927946    
    544000   0.9882746      17.747531      8.6914294    
    545000   0.98928948     17.368395      8.2980361    
    546000   1.0534555      17.329038      8.1240518    
    547000   1.0127844      17.43156       7.9064735    
    548000   0.99895835     17.162506      7.9071961    
    549000   0.95550745     17.121141      7.7420614    
    550000   1.0160429      17.508745      7.6012165    
    551000   0.99764846     17.01928       7.4209912    
    552000   1.0189756      17.129314      7.4446392    
    553000   0.984642       16.767674      7.1271871    
Fix halt condition for fix-id 3 met on step 554000 with value 6.756076668867674 (src/fix_halt.cpp:237)
    554000   0.9485223      17.251233      6.7560767    
Loop time of 607.755 on 2 procs for 454000 steps with 801 atoms

Performance: 645418.179 tau/day, 747.012 timesteps/s
122.0% CPU use with 1 MPI tasks x 2 OpenMP threads

MPI task timing breakdown:
Section |  min time  |  avg time  |  max time  |%varavg| %total
---------------------------------------------------------------
Pair    | 89.317     | 89.317     | 89.317     |   0.0 | 14.70
Bond    | 10.796     | 10.796     | 10.796     |   0.0 |  1.78
Neigh   | 481.15     | 481.15     | 481.15     |   0.0 | 79.17
Comm    | 0.1681     | 0.1681     | 0.1681     |   0.0 |  0.03
Output  | 1.5566     | 1.5566     | 1.5566     |   0.0 |  0.26
Modify  | 23.165     | 23.165     | 23.165     |   0.0 |  3.81
Other   |            | 1.606      |            |       |  0.26

Nlocal:            801 ave         801 max         801 min
Histogram: 1 0 0 0 0 0 0 0 0 0
Nghost:              0 ave           0 max           0 min
Histogram: 1 0 0 0 0 0 0 0 0 0
Neighs:         144932 ave      144932 max      144932 min
Histogram: 1 0 0 0 0 0 0 0 0 0

Total # of neighbors = 144932
Ave neighs/atom = 180.93883
Ave special neighs/atom = 1.9975031
Neighbor list builds = 4381
Dangerous builds = 0

# This simulation is done
# Move onto the next one
clear
  using 2 OpenMP thread(s) per MPI task
package omp 0
using multi-threaded neighbor list subroutines
next f
jump SELF

###
# Reference paper:
# K. Kremer and G. S. Grest
# Dynamics of entangled linear polymer melts: A molecular-dynamics simulation
# J Chem Phys 92, 5057 (1990)

##################################
# MIHIR: for branched polymers
# LJ minimum first to expand and explore, then collapse
###

###
# Looping through the various N1B4 polymers to simulate,
# define variables to switch through
variable f index bb51nuc1bl25bn4d30tot100V2 bb101nuc1bl50bn4d30tot200V2 bb151nuc1bl75bn4d30tot300V2 bb201nuc1bl100bn4d30tot400V2 bb251nuc1bl125bn4d30tot500V2 bb301nuc1bl150bn4d30tot600V2 bb351nuc1bl175bn4d30tot700V2 bb401nuc1bl200bn4d30tot800V2 bb451nuc1bl225bn4d30tot900V2 bb501nuc1bl250bn4d30tot1000V2 bb551nuc1bl275bn4d30tot1100V2 bb601nuc1bl300bn4d30tot1200V2
# variable f index bb51nuc1bl25bn4d30tot100V3 bb101nuc1bl50bn4d30tot200V3 bb151nuc1bl75bn4d30tot300V3 bb201nuc1bl100bn4d30tot400V3 bb251nuc1bl125bn4d30tot500V3 bb301nuc1bl150bn4d30tot600V3 bb351nuc1bl175bn4d30tot700V3 bb401nuc1bl200bn4d30tot800V3 bb451nuc1bl225bn4d30tot900V3 bb501nuc1bl250bn4d30tot1000V3 bb551nuc1bl275bn4d30tot1100V3 bb601nuc1bl300bn4d30tot1200V3
# variable f index bb51nuc1bl25bn4d30tot100 bb101nuc1bl50bn4d30tot200 bb151nuc1bl75bn4d30tot300 bb201nuc1bl100bn4d30tot400 bb251nuc1bl125bn4d30tot500 bb301nuc1bl150bn4d30tot600 bb351nuc1bl175bn4d30tot700 bb401nuc1bl200bn4d30tot800 bb451nuc1bl225bn4d30tot900 bb501nuc1bl250bn4d30tot1000 bb551nuc1bl275bn4d30tot1100 bb601nuc1bl300bn4d30tot1200
###


###
# Box and units  (use LJ units and periodic boundaries)
###

units lj
log N1B4/trial2/logs2/$f.log
log N1B4/trial2/logs2/bb451nuc1bl225bn4d30tot900V2.log
