#atom_style bond #no stiffness
atom_style angle #with stiffness

boundary        p p p
###
# Pair interactions require lists of neighbours to be calculated
###

#neighbor 0.3 bin
neighbor 4 bin

neigh_modify every 1 delay 1 check yes
atom_modify sort 0 0
### Generate RESTART file, SPECIAL format, not a .txt file ###
### Useful if simulation crashes ###

restart 1000000 N1B4/trial2/restarts2/$f.restart
restart 1000000 N1B4/trial2/restarts2/bb501nuc1bl250bn4d30tot1000V2.restart
#############################



### READ "start" data file ###

read_data N1B4/trial2/dats2/$f.dat
read_data N1B4/trial2/dats2/bb501nuc1bl250bn4d30tot1000V2.dat
Reading data file ...
  orthogonal box = (-1000 -1000 -1000) to (1000 1000 1000)
  1 by 1 by 1 MPI processor grid
  reading atoms ...
  1001 atoms
  scanning bonds ...
  3 = max bonds/atom
  scanning angles ...
  6 = max angles/atom
  reading bonds ...
  1000 bonds
  reading angles ...
  1002 angles
Finding 1-2 1-3 1-4 neighbors ...
  special bond factors lj:    0        0        0       
  special bond factors coul:  0        0        0       
     4 = max # of 1-2 neighbors
     4 = max # of 1-3 neighbors
     8 = max # of 1-4 neighbors
    12 = max # of special neighbors
  special bonds CPU = 0.003 seconds
  read_data CPU = 0.277 seconds

######################

### READ "REstart" data file ###

######################



###
# Define groups (atom type 1 is group 'all')
###
group all type 1
1001 atoms in group all


###
# Dump configs - "simple dumpings"
###

###
# Dump configs + box coords
###

dump   1   all   custom   1000  N1B4/trial2/trjs2/$f.lammpstrj  id  x y z  ix iy iz
dump   1   all   custom   1000  N1B4/trial2/trjs2/bb501nuc1bl250bn4d30tot1000V2.lammpstrj  id  x y z  ix iy iz
dump_modify   1   format line "%d %.5f %.5f %.5f %d %d %d"

########################################################################


###################################################################
# Stiffness term
#
# E = K * (1+cos(theta)), K>0
#
angle_style   cosine
#change this coefficient to change stiffness (e.g. 1,5,10)
angle_coeff   1 1.0
###################################################################

###################################################################
# Pair interaction between non-bonded atoms
#
#  Lennard-Jones 12-6 potential with cutoff:
#  potential E=4epsilon[ (sigma/r)^12 - (sigma/r)^6]  for r<r_cut
#
#  1.12246 = 2^(1/6) is the minimum of the potential


pair_style      lj/cut 1.12246152962189
#pair_style      lj/cut 3

#
#  pair_modify shift yes adds a constant to the potential such

#  that E(r_cut)=0. Forces remains unchanged.
#

pair_modify     shift yes

#
#  pair_coeff for lj/cut, specify 4:
#    * atom type interacting with
#    * atom type
#    * epsilon (energy units)
#    * sigma (distance units)
#

pair_coeff      1 1 1.0 1.0
###################################################################

###################################################################
# Pair interaction between non-bonded atoms
#
#  soft potential, for PUSHING apart overlapping atoms
#  potential E=A*(1 + cos(pi*r/r_c))
#
#  1.12246 = 2^(1/6) is the cut-off r_c

#pair_style     soft 1.12246152962189

#
#  pair_coeff for soft, specify 3:
#    * atom type interacting with
#    * atom type
#    * A
#
#

#pair_coeff      1 1 100.0
###################################################################

###################################################################
# Pair interaction between bonded atoms
#
# Fene potential + Lennard Jones 12-6:

#
#  E= - 0.5 K R0^2 ln[ 1- (r/R0)^2]
#     + 4epsilon[ (sigma/r)^12 - (sigma/r)^6] + epsilon
#

bond_style   fene


#
# For style fene, specify:
#   * bond type
#   * K (energy/distance^2)
#   * R0 (distance)
#   * epsilon (energy)  (LJ component)
#   * sigma (distance)  (LJ component)
#


special_bonds fene #<=== I M P O R T A N T (new command)
Finding 1-2 1-3 1-4 neighbors ...
  special bond factors lj:    0        1        1       
  special bond factors coul:  0        1        1       
     4 = max # of 1-2 neighbors
    12 = max # of special neighbors
  special bonds CPU = 0.001 seconds

bond_coeff   1   30   2   1.0   1.0


###################################################

###################################################################
# Pair interaction between bonded atoms
#
# Harmonic potential:
#
#  E= K * (R-R0)^2
#

#bond_style   harmonic

#
# For style harmonic, specify:
#   * bond type
#   * K (energy/distance^2)
#   * R0 (distance)
#

#bond_coeff   1   60.0   1.0
#bond_coeff   2   harmonic 0.1   1.0

###################################################
compute 1 all gyration
variable rog equal c_1
#compute 2 all coord/atom cutoff 1.1

#dump 2 all custom 10000 contact_number.dump id c_2


###
# Set up fixes
###
thermo_style   custom   step  temp enthalpy c_1
fix 1 all nve   ###NVE ensemble

fix 2 all   langevin   1.0 1.0 1.0  778655   ###Langevin integrator Tstart Tstop 1/friction rndseed


##### Sample thermodynamic info  (temperature, energy, pressure, etc.) #####
thermo 1000









############################################################################

###
# set timestep of integrator

timestep 0.01

###
# run integration for a number of steps
###
#run 0
#variable r equal c_1
#if "$r < 63.1" then "quit 1"

# lj potential minimum, cause molecule to explore
run 100000
Generated 0 of 0 mixed pair_coeff terms from geometric mixing rule
Last active /omp style is angle_style cosine/omp
Neighbor list info ...
  update: every = 1 steps, delay = 1 steps, check = yes
  max neighbors/atom: 2000, page size: 100000
  master list distance cutoff = 5.1224615
  ghost atom cutoff = 5.1224615
  binsize = 2.5612308, bins = 781 781 781
  1 neighbor lists, perpetual/occasional/extra = 1 0 0
  (1) pair lj/cut/omp, perpetual
      attributes: half, newton on, omp
      pair build: half/bin/newton/omp
      stencil: half/bin/3d
      bin: standard
WARNING: Communication cutoff 5.12246152962189 is shorter than a bond length based estimate of 5.455. This may lead to errors. (src/comm.cpp:723)
Per MPI rank memory allocation (min/avg/max) = 1862 | 1862 | 1862 Mbytes
   Step          Temp         Enthalpy         c_1      
         0   0              13.249424      131.3837     
      1000   0.97385034     17.544464      130.83481    
      2000   1.041882       18.149309      130.30374    
      3000   0.98523252     17.953832      129.86277    
      4000   1.0021349      18.025329      129.14685    
      5000   0.99764705     18.323914      128.73015    
      6000   1.0337399      18.546581      128.18546    
      7000   1.0124954      18.378245      127.70353    
      8000   0.96478868     18.598974      127.13107    
      9000   0.98849633     18.400154      126.7239     
     10000   0.99448567     18.781066      126.11735    
     11000   1.047897       19.0822        125.85143    
     12000   1.0070623      18.870094      125.30403    
     13000   0.99589562     18.772581      124.99785    
     14000   0.9984031      18.772515      124.65126    
     15000   1.0269259      19.391588      124.30634    
     16000   0.97593329     18.515344      123.93846    
     17000   0.98598154     18.683488      123.55166    
     18000   0.99845197     18.672017      123.34407    
     19000   0.99625093     19.133452      122.92527    
     20000   0.96783978     19.066407      122.75707    
     21000   0.99596749     19.243453      122.57653    
     22000   0.98989331     19.179641      122.15228    
     23000   0.95361469     19.324015      121.73016    
     24000   0.98938341     19.019674      121.60529    
     25000   0.99610525     18.546222      121.30044    
     26000   1.02393        19.353779      120.87308    
     27000   1.0186341      18.918663      120.47735    
     28000   1.0535982      19.339348      120.05179    
     29000   0.94141778     18.943721      119.87216    
     30000   1.0168136      19.14271       119.85674    
     31000   0.97172116     19.109608      119.45344    
     32000   0.99938642     19.19825       119.26364    
     33000   0.94638188     19.575733      119.13067    
     34000   1.0265142      19.123821      118.9799     
     35000   1.0063436      19.176971      118.74579    
     36000   1.0020328      19.179951      118.40158    
     37000   1.0521435      19.787135      118.40595    
     38000   0.96418897     18.722338      118.20758    
     39000   1.0103356      19.477148      117.69252    
     40000   0.99611583     19.647092      117.47774    
     41000   0.99879499     19.576564      117.31522    
     42000   1.0200333      19.886233      116.7895     
     43000   1.0096331      19.153792      116.68625    
     44000   0.96475156     19.684801      116.41522    
     45000   1.0101958      19.57311       116.23508    
     46000   0.97811807     20.113652      115.78932    
     47000   1.0021858      19.630253      115.62677    
     48000   0.9964344      19.748343      115.40065    
     49000   0.95350482     19.603943      115.13133    
     50000   1.0009378      19.713707      115.07831    
     51000   1.0434408      19.51109       115.04215    
     52000   0.97853219     19.373874      114.4117     
     53000   1.0394523      19.855545      114.17847    
     54000   0.97815511     19.612175      114.21194    
     55000   0.98275759     19.691145      114.00279    
     56000   0.95066233     19.255514      113.95988    
     57000   0.99660855     19.321883      113.74163    
     58000   1.0321643      19.136834      113.60315    
     59000   1.0083004      19.583822      113.14526    
     60000   0.99006284     19.768422      112.81665    
     61000   1.0111586      19.732743      112.47552    
     62000   1.0044732      19.871017      112.40445    
     63000   1.0208581      19.65108       112.21669    
     64000   1.0301848      19.945127      111.94128    
     65000   1.0357511      20.112747      111.70312    
     66000   1.0146085      19.608066      111.41998    
     67000   1.0782671      19.928026      111.2511     
     68000   0.99546854     19.618775      110.99087    
     69000   1.0209395      19.747047      110.83748    
     70000   0.94656326     20.089986      110.56044    
     71000   0.99510412     19.708114      110.47495    
     72000   0.97650721     19.962846      110.35183    
     73000   1.0031587      20.053256      109.99843    
     74000   0.9997823      20.150286      109.81296    
     75000   1.0500028      19.252712      109.35874    
     76000   1.0063284      19.610282      109.01937    
     77000   1.003288       19.82668       108.83338    
     78000   1.0173397      20.169741      108.69061    
     79000   0.97445929     19.948453      108.68359    
     80000   1.0086783      19.896678      108.67259    
     81000   0.97371652     19.831706      108.26775    
     82000   0.99904296     19.723277      108.13611    
     83000   0.96183275     20.63222       108.16554    
     84000   1.0632724      20.687931      107.98271    
     85000   1.0362332      19.764692      107.81389    
     86000   1.0080924      19.970133      107.37545    
     87000   0.99507595     19.752607      107.46134    
     88000   1.0220765      19.847812      107.13917    
     89000   1.0829232      20.178405      106.88725    
     90000   0.98350952     20.280239      106.89397    
     91000   0.99796835     19.901746      106.85895    
     92000   1.0017506      19.840547      106.49775    
     93000   0.98252337     20.089672      106.2755     
     94000   0.99991023     19.680859      106.06655    
     95000   0.97985579     20.318889      106.04547    
     96000   1.036651       19.981547      105.94687    
     97000   1.0089982      19.796936      105.85414    
     98000   1.0531857      19.8966        105.76241    
     99000   0.98985875     20.327882      105.72611    
    100000   1.0144728      19.873484      105.50339    
Loop time of 322.102 on 2 procs for 100000 steps with 1001 atoms

Performance: 268238.401 tau/day, 310.461 timesteps/s
104.0% CPU use with 1 MPI tasks x 2 OpenMP threads

MPI task timing breakdown:
Section |  min time  |  avg time  |  max time  |%varavg| %total
---------------------------------------------------------------
Pair    | 1.3521     | 1.3521     | 1.3521     |   0.0 |  0.42
Bond    | 2.8246     | 2.8246     | 2.8246     |   0.0 |  0.88
Neigh   | 310.87     | 310.87     | 310.87     |   0.0 | 96.51
Comm    | 0.037679   | 0.037679   | 0.037679   |   0.0 |  0.01
Output  | 0.40298    | 0.40298    | 0.40298    |   0.0 |  0.13
Modify  | 6.2185     | 6.2185     | 6.2185     |   0.0 |  1.93
Other   |            | 0.398      |            |       |  0.12

Nlocal:           1001 ave        1001 max        1001 min
Histogram: 1 0 0 0 0 0 0 0 0 0
Nghost:              0 ave           0 max           0 min
Histogram: 1 0 0 0 0 0 0 0 0 0
Neighs:           5441 ave        5441 max        5441 min
Histogram: 1 0 0 0 0 0 0 0 0 0

Total # of neighbors = 5441
Ave neighs/atom = 5.4355644
Ave special neighs/atom = 1.998002
Neighbor list builds = 1102
Dangerous builds = 0

# Replace lj potential, now collapse
pair_style      lj/cut 3

# Cutoff simul when gyration under 7
# Variable created with equal requires v_ + 'name'
fix 3 all halt 1000 v_rog < 7

run 5000000
Generated 0 of 0 mixed pair_coeff terms from geometric mixing rule
Last active /omp style is angle_style cosine/omp
Per MPI rank memory allocation (min/avg/max) = 1862 | 1862 | 1862 Mbytes
   Step          Temp         Enthalpy         c_1      
    100000   1.0144728      19.32688       105.50339    
    101000   0.99379524     19.170733      105.32232    
    102000   0.97372792     19.174832      105.15215    
    103000   1.0204542      19.263905      104.89197    
    104000   1.0182016      19.868838      104.77661    
    105000   1.0330861      19.373205      104.74048    
    106000   0.96408603     19.443797      104.74849    
    107000   1.0077565      18.819483      104.55976    
    108000   1.0316438      19.016773      104.37854    
    109000   0.98043984     19.472392      104.05589    
    110000   1.0299937      19.295086      103.81851    
    111000   1.0256444      19.27017       103.34324    
    112000   0.96758763     19.684141      103.33783    
    113000   1.0227721      19.513531      103.2077     
    114000   1.007246       18.630556      103.16333    
    115000   1.0119863      19.327399      103.20692    
    116000   1.0214753      19.944092      103.04345    
    117000   1.0409544      19.382506      102.98944    
    118000   0.98525582     19.039128      102.78222    
    119000   0.96595925     19.727378      102.47753    
    120000   0.98546972     19.133798      102.28628    
    121000   1.0023927      18.931483      101.9848     
    122000   0.97650717     19.451651      101.70835    
    123000   0.99649335     19.689738      101.44937    
    124000   0.99072279     19.337366      101.35271    
    125000   1.0069578      19.592598      101.10676    
    126000   0.99238652     19.134929      100.84336    
    127000   1.028312       19.328195      100.80205    
    128000   0.96921185     19.452717      100.42841    
    129000   1.0598363      19.631022      100.06005    
    130000   0.98771984     19.305351      100.19431    
    131000   0.97516458     18.211734      100.06117    
    132000   1.0195363      19.611038      99.531675    
    133000   1.0127019      19.572679      99.315769    
    134000   0.96376353     19.071855      99.331501    
    135000   1.0101048      19.401509      99.398641    
    136000   1.0057633      19.503551      99.241137    
    137000   0.92866442     19.10587       99.251861    
    138000   0.99601706     19.124086      99.011553    
    139000   0.9851524      18.991624      98.972156    
    140000   0.97730612     18.910214      98.76521     
    141000   1.0100976      19.007338      98.650638    
    142000   1.0054357      19.136839      98.459937    
    143000   0.98804128     19.127269      98.679926    
    144000   0.9928921      18.887168      98.452272    
    145000   0.97212757     19.029728      98.380406    
    146000   1.007216       19.238072      98.095111    
    147000   1.0307087      19.140109      97.786785    
    148000   1.012538       19.699978      97.934842    
    149000   1.0215817      19.379459      97.85842     
    150000   0.96324542     18.916929      97.755122    
    151000   0.99086982     19.45483       97.725785    
    152000   1.0552017      19.279244      97.335082    
    153000   1.0279222      19.529571      97.21701     
    154000   1.0002434      18.444642      97.2157      
    155000   1.0224987      19.302985      97.01805     
    156000   1.0286469      19.348381      96.652897    
    157000   0.98386317     19.465421      96.458341    
    158000   0.98453911     19.61369       96.332875    
    159000   1.0375616      19.306028      95.993532    
    160000   1.0008803      19.393687      95.742644    
    161000   1.0148455      18.519711      95.732947    
    162000   1.0133028      19.010136      95.576758    
    163000   1.0141938      19.707429      95.273867    
    164000   0.99599168     19.318724      95.156965    
    165000   0.97003221     19.250804      95.001239    
    166000   1.0397403      19.182702      94.864471    
    167000   1.0257454      19.703032      94.580183    
    168000   0.99539942     19.634936      94.312335    
    169000   0.98330241     19.162524      94.011341    
    170000   1.0102351      19.084171      93.813812    
    171000   0.96396761     19.573022      93.714134    
    172000   0.99817199     18.481017      93.585723    
    173000   0.95493083     18.494554      93.332227    
    174000   0.96500522     18.612828      93.219294    
    175000   1.0140398      19.479377      93.294518    
    176000   1.0095121      19.01559       93.133201    
    177000   1.0275424      18.966317      92.824467    
    178000   1.0241508      19.042252      92.70343     
    179000   1.0278545      19.192503      92.543186    
    180000   1.0091327      18.4761        92.340287    
    181000   0.98677129     18.988241      92.188552    
    182000   0.97360624     19.237293      92.067965    
    183000   1.0395946      19.123098      92.040172    
    184000   0.93536773     19.179604      91.856017    
    185000   0.99685336     19.187063      91.893505    
    186000   0.9522266      18.526511      91.778419    
    187000   1.000573       19.513784      91.770969    
    188000   0.95134787     19.059167      91.488845    
    189000   1.0131564      19.32092       91.243724    
    190000   0.95666099     18.948696      90.970257    
    191000   0.98110535     19.26718       90.604215    
    192000   1.0634214      18.772791      90.496558    
    193000   1.0132644      18.968494      90.214751    
    194000   0.98368645     19.370924      89.906887    
    195000   1.0532784      19.572756      89.900893    
    196000   0.97054074     18.987334      89.653336    
    197000   0.96382754     18.974494      89.44796     
    198000   0.97789298     18.633077      89.227128    
    199000   0.99060481     18.461488      89.137028    
    200000   1.0331887      18.941856      88.910079    
    201000   1.0269285      19.157641      88.70956     
    202000   0.94777371     19.315328      88.613277    
    203000   1.0186724      18.971999      88.258996    
    204000   1.0012335      19.205838      88.301842    
    205000   1.023436       18.645244      88.316505    
    206000   1.0183076      18.993496      88.09026     
    207000   1.0199225      19.434152      88.270224    
    208000   1.0360989      19.178574      88.073633    
    209000   1.0209645      18.817248      87.814419    
    210000   0.99124233     18.691163      87.814166    
    211000   1.0329887      19.253664      87.636337    
    212000   1.0099334      19.252938      87.641788    
    213000   0.99119794     18.772608      87.523004    
    214000   0.94775655     18.951155      87.539063    
    215000   0.95508129     18.150633      87.238169    
    216000   1.0054835      19.098421      86.838531    
    217000   1.021694       19.442145      86.974424    
    218000   0.99241607     18.588083      86.894794    
    219000   0.99044955     19.138587      86.736811    
    220000   1.0043968      19.817127      86.514314    
    221000   0.98920292     18.687273      86.303978    
    222000   0.96692847     18.963796      86.119183    
    223000   0.9681392      18.711029      85.969154    
    224000   1.023886       18.438191      85.847736    
    225000   0.99599117     18.887891      85.719642    
    226000   1.0163041      18.905431      85.554629    
    227000   1.0175878      19.451865      85.244355    
    228000   0.99897661     19.119335      84.908969    
    229000   0.94692319     19.116496      84.605967    
    230000   1.0051254      19.189533      84.425916    
    231000   0.97804833     18.942689      84.285095    
    232000   1.0047798      18.85328       84.226585    
    233000   1.0582036      18.931457      84.25702     
    234000   1.004815       19.054097      84.156305    
    235000   0.98400256     18.533638      84.062324    
    236000   0.99517514     18.744983      83.764203    
    237000   0.97380589     19.075276      83.465408    
    238000   1.008244       19.001138      83.48667     
    239000   0.99342563     18.762807      83.338276    
    240000   1.0279012      18.83462       83.372803    
    241000   0.99560014     18.645729      83.237881    
    242000   0.93677981     19.439766      83.283114    
    243000   0.99342808     19.055436      83.095259    
    244000   0.99352035     18.115053      82.98611     
    245000   1.0026878      18.956487      82.780719    
    246000   0.98381308     19.14251       82.808061    
    247000   1.0536502      18.823152      82.459063    
    248000   0.96360441     18.077685      82.330716    
    249000   1.0475997      19.473696      82.155208    
    250000   0.97202563     19.034606      81.920217    
    251000   1.0396646      18.941377      81.942807    
    252000   0.95834445     19.186999      82.006417    
    253000   1.0277056      18.846318      81.807313    
    254000   0.99626801     18.282073      81.684365    
    255000   1.0222306      19.474364      81.525967    
    256000   0.94707793     19.096076      81.526764    
    257000   1.0423496      19.241086      81.285463    
    258000   1.0087789      18.897948      81.009479    
    259000   0.98581774     18.388087      80.770047    
    260000   0.95548557     18.819284      80.571444    
    261000   0.9943499      18.933651      80.470269    
    262000   0.97750763     18.634838      80.19196     
    263000   0.95514425     17.861991      80.282189    
    264000   0.99588647     19.040249      80.133672    
    265000   1.0466709      18.458284      80.0519      
    266000   1.0287925      18.738073      79.968042    
    267000   0.97492347     18.342559      79.984372    
    268000   0.96828768     18.717407      79.826725    
    269000   1.0525313      18.522021      79.808403    
    270000   0.96703544     18.621864      79.899956    
    271000   1.0146959      18.632443      79.672101    
    272000   0.99540654     18.774557      79.71416     
    273000   1.0111063      18.982666      79.492841    
    274000   1.0050103      19.039295      79.471492    
    275000   1.0029074      18.173279      79.214583    
    276000   1.0478121      18.745128      78.971535    
    277000   1.0248049      19.029991      78.728069    
    278000   1.0055993      19.394762      78.327715    
    279000   0.98067681     18.82806       78.346285    
    280000   0.9789567      18.486774      78.420128    
    281000   1.0110503      18.894211      78.387685    
    282000   0.96196144     18.687751      78.269938    
    283000   0.9448499      18.707834      78.145687    
    284000   0.98425677     18.403866      78.126567    
    285000   1.0119813      18.739305      77.976691    
    286000   0.99266471     18.790162      77.612702    
    287000   1.0028262      18.840496      77.338128    
    288000   0.98704139     19.008685      77.081638    
    289000   0.99770144     18.268019      76.638243    
    290000   1.0085847      18.566931      76.40502     
    291000   1.0127827      18.414927      76.355952    
    292000   1.0103131      18.881514      76.147933    
    293000   1.0024633      18.509151      75.928126    
    294000   1.0287487      18.504455      75.775534    
    295000   1.0170046      18.702938      75.479721    
    296000   0.96423322     18.563795      75.346053    
    297000   1.0452408      18.924103      75.334757    
    298000   0.95598535     18.641888      75.131585    
    299000   1.0300692      19.210383      74.877337    
    300000   0.9769679      18.519234      74.574294    
    301000   1.0087829      18.865436      74.280611    
    302000   0.99738008     18.918997      74.140139    
    303000   0.98185471     18.6211        74.048172    
    304000   0.99997323     18.954047      73.982611    
    305000   0.98488105     18.369695      73.55622     
    306000   1.0085755      18.716433      73.60018     
    307000   1.038916       18.824603      73.476929    
    308000   1.0137753      18.661407      73.361265    
    309000   1.011287       18.710537      73.163421    
    310000   0.95677959     19.076219      72.905055    
    311000   1.0264498      19.310747      72.725235    
    312000   1.0321871      18.558142      72.713031    
    313000   1.0182466      18.439181      72.30536     
    314000   0.99621073     18.51252       71.867019    
    315000   0.976803       18.510956      71.494253    
    316000   0.99243675     18.149334      71.393943    
    317000   0.99904589     18.91438       71.213762    
    318000   1.0299005      18.341546      71.329722    
    319000   1.0331859      18.671367      70.999043    
    320000   1.0611063      18.77065       70.74673     
    321000   0.99782559     18.970729      70.440166    
    322000   1.0209822      19.164504      70.104615    
    323000   0.93825847     18.500844      70.046652    
    324000   1.0199351      18.375571      69.859123    
    325000   1.0184601      18.928709      69.786623    
    326000   0.99801311     19.031349      69.349994    
    327000   0.9921372      18.509652      69.075734    
    328000   0.98508107     18.811564      69.011526    
    329000   0.99463157     18.293039      68.548288    
    330000   1.0148673      18.435111      68.31733     
    331000   1.0045233      18.238829      68.32783     
    332000   0.99768472     18.809351      68.112778    
    333000   1.0138068      18.49766       67.99054     
    334000   0.99835962     18.635188      67.629464    
    335000   1.0107306      18.823999      67.353557    
    336000   0.97419548     18.694466      67.286906    
    337000   1.0216319      18.535148      67.205257    
    338000   1.0160487      18.215299      67.060013    
    339000   1.0418123      18.878759      67.057792    
    340000   1.0064644      18.439178      66.831118    
    341000   1.0106843      18.870171      66.69319     
    342000   1.0155895      18.761333      66.802157    
    343000   1.02254        18.629368      66.767247    
    344000   0.98708138     18.053823      66.630847    
    345000   1.0452616      19.034264      66.522764    
    346000   0.98188867     18.599867      66.412553    
    347000   1.0232057      19.175588      66.106204    
    348000   1.0685242      18.411808      65.92501     
    349000   0.97115028     18.279736      65.807834    
    350000   0.96306144     18.499629      65.63426     
    351000   1.0150948      18.285929      65.567108    
    352000   0.97070129     18.713979      65.300277    
    353000   1.0112022      18.125335      65.26716     
    354000   1.0321305      18.649773      65.173824    
    355000   1.0015819      19.404661      64.959241    
    356000   0.99153561     18.295317      64.916822    
    357000   1.0421988      18.051349      64.688874    
    358000   1.0165986      18.483801      64.778168    
    359000   1.0576814      18.684745      64.438839    
    360000   1.0052967      19.004782      64.181229    
    361000   0.95568818     17.728408      63.863711    
    362000   1.0083274      18.896154      63.692643    
    363000   0.99060784     18.717049      63.43335     
    364000   1.0212847      18.71401       63.357066    
    365000   1.0255536      18.955508      63.494281    
    366000   0.99046259     18.52994       63.52777     
    367000   0.98421387     18.305645      63.553862    
    368000   1.0328597      18.326482      63.485828    
    369000   1.0224671      19.530534      63.576416    
    370000   0.96210705     18.485648      63.648388    
    371000   1.061804       18.672407      63.487553    
    372000   1.0394021      18.535932      63.156928    
    373000   0.99147113     18.562724      63.168869    
    374000   1.017357       18.676636      62.831851    
    375000   1.0034103      18.244218      62.807683    
    376000   1.0231865      18.723093      62.887009    
    377000   0.99741        17.741823      62.469052    
    378000   0.99684335     18.622249      62.357292    
    379000   0.96364699     18.251154      62.060417    
    380000   0.99697925     17.963636      61.965081    
    381000   1.0238358      17.956028      61.901533    
    382000   0.99872839     18.493077      61.699389    
    383000   1.0154816      18.718663      61.388956    
    384000   0.977704       18.43822       61.200229    
    385000   0.9670196      18.650481      61.013648    
    386000   1.0178213      18.920787      60.866672    
    387000   1.0009975      18.243238      60.629811    
    388000   1.0361698      18.909395      60.515234    
    389000   1.0127936      18.069899      60.319773    
    390000   0.98877976     18.178822      60.322399    
    391000   0.99675872     17.727498      60.028533    
    392000   1.000719       18.495983      59.954172    
    393000   0.99461928     18.143656      59.768456    
    394000   1.0047567      17.970768      59.824871    
    395000   1.0047362      18.732774      59.716746    
    396000   0.97898454     19.049091      59.624149    
    397000   0.97372892     18.125151      59.566794    
    398000   1.0262328      18.864617      59.677085    
    399000   0.99676569     18.553639      59.656316    
    400000   1.0013752      18.138191      59.359132    
    401000   1.0444157      18.545067      59.246644    
    402000   1.0287937      18.424172      59.03286     
    403000   1.0035359      18.403099      58.992536    
    404000   0.97277839     18.530429      59.13317     
    405000   1.0384743      18.090392      59.090754    
    406000   1.0169588      18.635733      59.050785    
    407000   1.0224601      18.254527      59.001213    
    408000   1.0433044      18.122393      58.852062    
    409000   0.99525409     18.489695      58.629404    
    410000   0.98987169     18.580962      58.500027    
    411000   1.010981       18.473636      58.156512    
    412000   1.0275307      18.173622      58.139294    
    413000   1.0423953      17.937159      57.906621    
    414000   0.97830809     17.874082      58.001474    
    415000   1.0480338      18.73098       57.690201    
    416000   0.99765462     19.023226      57.439248    
    417000   0.96514114     18.208694      57.363649    
    418000   0.99988958     18.900704      57.165793    
    419000   0.98646086     18.590067      57.141622    
    420000   1.0173624      18.221924      56.888496    
    421000   1.0074909      18.72196       56.672999    
    422000   0.99408208     18.291108      56.65112     
    423000   0.96979309     17.937608      56.460666    
    424000   0.99849073     18.273231      56.253426    
    425000   1.0106431      18.286617      56.297029    
    426000   1.0107765      18.18266       56.309589    
    427000   0.97672891     18.405068      56.268277    
    428000   1.0003948      18.67316       56.065851    
    429000   1.011768       18.262537      55.787159    
    430000   1.0126097      18.639152      55.771904    
    431000   0.98682361     18.158684      55.465974    
    432000   0.98306956     17.750616      55.41463     
    433000   1.0267597      18.281396      55.380472    
    434000   0.9858249      17.765677      55.257947    
    435000   1.0155906      18.704205      55.06981     
    436000   1.046045       18.706144      55.017022    
    437000   1.0126709      18.667262      55.001959    
    438000   1.0082858      17.679159      54.882681    
    439000   0.97310256     18.208158      55.02102     
    440000   1.0016946      18.129957      55.051108    
    441000   1.0212194      17.960333      55.004438    
    442000   1.0300575      18.518193      54.894411    
    443000   1.0017319      18.006013      54.64569     
    444000   0.97456065     18.144775      54.371939    
    445000   0.95078848     18.598027      54.379386    
    446000   1.0192447      18.192418      53.999325    
    447000   1.0033404      18.674365      53.780358    
    448000   0.99021409     18.212081      53.504166    
    449000   1.0373052      18.370885      53.260087    
    450000   0.97876863     18.437108      53.159398    
    451000   1.0316512      18.926516      52.874925    
    452000   0.97357146     18.774051      52.775095    
    453000   1.0277349      18.351996      52.594813    
    454000   0.98285319     18.710711      52.473965    
    455000   0.97453275     18.939523      52.362759    
    456000   1.0015935      18.696383      52.250387    
    457000   1.0235046      18.968555      52.335712    
    458000   0.99610618     17.872196      52.157944    
    459000   0.9963767      17.823388      52.076878    
    460000   0.99420458     18.059243      51.804895    
    461000   0.97772499     18.251604      51.531377    
    462000   0.99864749     18.039375      51.311921    
    463000   0.99950842     17.941946      51.228115    
    464000   1.0151469      17.831919      51.08907     
    465000   1.0383088      19.037396      50.911659    
    466000   1.0028867      18.422373      50.733282    
    467000   0.97812988     17.921378      50.722231    
    468000   0.98339637     17.682808      50.683914    
    469000   0.99563395     18.085945      50.518266    
    470000   0.99142769     18.255593      50.215216    
    471000   1.0127922      18.220312      50.097836    
    472000   1.0050535      18.083654      49.767705    
    473000   0.98746672     17.871236      49.612814    
    474000   0.96721802     18.394288      49.594402    
    475000   1.0095561      18.424405      49.359199    
    476000   1.0075906      17.916614      49.158144    
    477000   0.98920215     18.067749      49.117436    
    478000   0.94477145     17.845406      49.062731    
    479000   0.99400231     18.347758      48.847945    
    480000   0.97927189     17.838918      48.797716    
    481000   1.0020245      17.96945       48.751714    
    482000   1.0261986      18.473461      48.638816    
    483000   0.97397202     18.039224      48.671372    
    484000   1.032437       18.545206      48.739431    
    485000   0.95673557     17.976073      48.761705    
    486000   1.0158047      18.267933      48.803643    
    487000   0.96225283     18.377133      48.641363    
    488000   1.0275667      18.32914       48.633182    
    489000   0.97180207     18.109237      48.570267    
    490000   1.0036507      17.956904      48.55796     
    491000   0.97490169     17.547305      48.174851    
    492000   1.0602521      17.863842      48.16582     
    493000   1.0325088      18.34455       47.946759    
    494000   0.99091394     18.376021      47.601305    
    495000   1.0376837      18.494899      47.472691    
    496000   1.0264033      18.640951      47.270551    
    497000   0.9662399      18.30459       47.250889    
    498000   0.98483301     18.386985      47.093381    
    499000   1.0234703      18.056619      47.150066    
    500000   0.99429494     18.041499      46.938464    
    501000   0.98372916     17.907781      47.072135    
    502000   0.96618727     17.977984      47.078473    
    503000   1.0008732      18.550499      46.939642    
    504000   1.0521973      18.705273      46.706894    
    505000   1.0039892      17.60005       46.430477    
    506000   0.95597908     18.162289      46.216527    
    507000   0.94944762     17.474351      46.308262    
    508000   1.0240778      18.166292      46.133269    
    509000   1.0070011      17.948592      45.869149    
    510000   0.95329173     18.081596      45.596357    
    511000   1.0320106      18.682918      45.608418    
    512000   1.042629       18.456572      45.39003     
    513000   1.0297484      18.408213      45.16987     
    514000   1.0336865      18.346655      45.127083    
    515000   1.0376644      18.318619      44.96316     
    516000   1.0088011      18.116764      44.937768    
    517000   0.98738925     18.346023      44.716957    
    518000   1.0415724      18.079291      44.819575    
    519000   0.9463545      18.052993      44.860519    
    520000   1.0243642      18.248885      44.721898    
    521000   1.0645279      18.032753      44.670786    
    522000   1.0146744      17.694333      44.507324    
    523000   0.97592424     18.093843      44.508647    
    524000   0.96070954     18.028728      44.389575    
    525000   0.99982987     17.315389      44.241607    
    526000   0.93936745     17.944221      44.149961    
    527000   0.99466624     17.77067       44.068955    
    528000   0.98393235     17.771788      44.006035    
    529000   0.95717195     17.774357      44.064047    
    530000   0.99866973     18.04584       44.134997    
    531000   1.0168565      18.153147      44.02643     
    532000   1.0631791      18.527798      44.001776    
    533000   0.99850959     18.57815       43.560479    
    534000   1.0590177      18.235479      43.413752    
    535000   1.0127871      18.261188      43.409015    
    536000   1.0036909      18.403798      43.027057    
    537000   1.0434273      18.097461      43.140004    
    538000   0.9797862      17.700058      42.922505    
    539000   0.98535983     18.066579      42.91841     
    540000   0.96404298     17.858736      42.830825    
    541000   0.93463211     17.928056      42.786186    
    542000   1.0197205      18.28753       42.800121    
    543000   1.0255196      18.173861      42.648639    
    544000   0.93723776     17.928557      42.750808    
    545000   1.014119       18.364517      42.566223    
    546000   1.0324954      18.256837      42.663318    
    547000   1.049589       18.511684      42.757377    
    548000   0.99985445     17.944639      42.712923    
    549000   1.0120714      18.199346      42.587638    
    550000   1.0020579      18.209922      42.829775    
    551000   0.95534529     17.756761      42.862312    
    552000   1.0303276      17.905238      42.541658    
    553000   0.99996046     18.079862      42.430823    
    554000   0.97950885     17.751312      42.212173    
    555000   0.97454971     17.977504      42.03244     
    556000   1.0579358      18.065653      42.166824    
    557000   0.97904737     17.504877      41.909052    
    558000   0.99757455     17.485468      41.628763    
    559000   1.0202668      18.245391      41.658942    
    560000   1.0264658      18.187747      41.61344     
    561000   0.99862494     18.020621      41.564611    
    562000   1.0022351      18.068738      41.575306    
    563000   0.99865579     17.883207      41.589259    
    564000   0.9972404      17.652793      41.362457    
    565000   1.0367663      18.269134      41.221946    
    566000   1.0233509      18.0811        41.097554    
    567000   0.98904814     18.148626      40.893095    
    568000   0.97521398     17.825323      40.647793    
    569000   1.0151138      18.241948      40.686618    
    570000   1.0009363      17.652487      40.749664    
    571000   1.0256017      18.361095      40.766158    
    572000   1.0074806      18.085577      40.588723    
    573000   0.98323013     18.015124      40.736321    
    574000   0.98597752     18.385683      40.696712    
    575000   0.97335015     17.671906      40.475809    
    576000   1.0054877      18.319882      40.619606    
    577000   0.99697408     17.767964      40.64611     
    578000   1.0106374      18.131222      40.4511      
    579000   0.988258       17.703721      40.273649    
    580000   1.0370998      17.973264      40.100211    
    581000   0.9734988      17.818649      39.743138    
    582000   0.97679878     17.85915       39.625193    
    583000   0.96842126     18.209349      39.595527    
    584000   1.0547702      17.892634      39.45601     
    585000   0.97279898     17.702399      39.065209    
    586000   0.97237057     17.563478      38.801222    
    587000   1.040705       17.934477      38.589203    
    588000   0.96942563     18.169205      38.387049    
    589000   0.99799655     18.197208      38.165177    
    590000   0.98735765     17.618996      37.940418    
    591000   1.0206602      18.0474        37.896954    
    592000   1.0119341      17.839776      37.860074    
    593000   1.0119085      18.128722      37.932801    
    594000   0.96571002     17.82062       37.867097    
    595000   0.92987998     17.288284      37.633983    
    596000   1.0202078      18.057301      37.413717    
    597000   1.0143204      17.989578      37.412207    
    598000   0.96451439     17.837201      37.426762    
    599000   0.98103931     18.067292      37.157223    
    600000   1.0057299      18.3763        36.868744    
    601000   1.0077458      17.893648      36.760385    
    602000   0.96441122     17.828547      36.705318    
    603000   1.001835       17.676623      36.594305    
    604000   1.0075892      17.81408       36.60109     
    605000   1.0068323      17.52464       36.171825    
    606000   0.99032334     17.54359       35.690221    
    607000   1.0151559      17.913301      35.59414     
    608000   1.0179101      17.714756      35.535072    
    609000   1.0343972      17.64655       35.348502    
    610000   0.96837134     17.909903      35.353697    
    611000   1.0069691      17.693178      35.154491    
    612000   1.0229752      17.84108       34.923115    
    613000   1.0061254      17.717916      34.814224    
    614000   1.0075926      17.90552       34.595345    
    615000   1.0071938      17.865547      34.517554    
    616000   1.039291       18.25569       34.521143    
    617000   0.98328193     17.620315      34.07759     
    618000   1.0306384      18.011851      34.115233    
    619000   0.97919702     17.448811      33.899037    
    620000   1.0114165      18.04936       33.845055    
    621000   0.99529542     17.945184      33.673781    
    622000   1.0013329      17.783663      33.458932    
    623000   1.0117225      18.037124      33.514781    
    624000   1.0072091      18.082673      33.180336    
    625000   0.96542724     18.115638      32.946249    
    626000   1.0372304      17.816531      32.898723    
    627000   0.99204305     17.637648      32.890512    
    628000   1.0431212      18.283136      32.841755    
    629000   1.0170466      18.260917      32.761422    
    630000   0.96277449     17.74368       32.731663    
    631000   1.0448506      18.085118      32.554941    
    632000   0.94843716     17.838142      32.357834    
    633000   0.98686593     17.77542       32.467663    
    634000   1.0219145      17.972161      32.239523    
    635000   1.0078701      17.507256      32.003029    
    636000   0.99015981     17.917968      31.730347    
    637000   0.95658114     17.165934      31.554644    
    638000   1.0088407      17.859596      31.417252    
    639000   0.98086315     17.096266      31.284577    
    640000   1.0026684      17.842542      31.407547    
    641000   0.98145716     17.917242      31.287548    
    642000   0.99179065     17.723657      31.066075    
    643000   1.01329        17.725989      30.836189    
    644000   1.0333258      17.725882      30.993576    
    645000   0.99393027     18.324651      30.865276    
    646000   1.0057747      18.287217      30.876227    
    647000   1.0151172      17.872372      30.683734    
    648000   1.0128502      18.035725      30.571606    
    649000   1.0373707      17.488753      30.254566    
    650000   1.0278368      18.605121      29.953159    
    651000   1.0163964      17.39596       29.757964    
    652000   1.0145149      17.818276      29.623015    
    653000   1.0503231      18.06657       29.672639    
    654000   1.0121371      17.836898      29.742981    
    655000   0.9655475      17.630082      29.495564    
    656000   1.011962       17.598138      29.333687    
    657000   1.0164627      17.865807      29.179441    
    658000   0.9598649      17.575948      29.037054    
    659000   1.0028382      18.127558      28.826963    
    660000   1.0130804      17.554903      28.471077    
    661000   0.97045409     18.18047       28.458932    
    662000   0.95653194     17.668635      28.556931    
    663000   0.9876687      18.037812      28.289244    
    664000   0.9876371      17.834953      28.250284    
    665000   0.9694798      17.351189      27.999265    
    666000   1.0251796      16.928977      27.705738    
    667000   1.0204705      18.378425      27.403458    
    668000   0.99787367     17.364737      27.236735    
    669000   0.99763242     17.776452      27.152019    
    670000   1.0323967      18.232944      27.234712    
    671000   0.9974089      17.932661      27.185599    
    672000   0.94178257     17.242598      26.949506    
    673000   1.0101759      17.847729      26.882647    
    674000   1.0137047      17.596725      26.769886    
    675000   1.0253832      17.256563      26.492549    
    676000   1.040381       18.178624      26.57016     
    677000   0.96305535     17.844709      26.300872    
    678000   1.0176181      17.784348      26.100511    
    679000   1.0478789      17.977517      25.846233    
    680000   1.012283       17.553165      25.580037    
    681000   0.97371077     17.550935      25.270123    
    682000   1.0372239      18.008754      24.93797     
    683000   0.95121897     18.034249      24.651627    
    684000   0.95314809     17.378873      24.363951    
    685000   0.96444373     17.316192      24.038083    
    686000   1.0270628      17.520734      24.121106    
    687000   0.96246544     17.521419      24.160647    
    688000   1.0141931      17.987273      23.887117    
    689000   0.99793041     17.872769      23.819656    
    690000   1.0140359      17.367246      23.680561    
    691000   0.95652071     17.828046      23.674488    
    692000   1.0268181      17.972174      23.309752    
    693000   0.99925115     17.321893      23.196493    
    694000   1.0102241      17.807812      23.204629    
    695000   1.0292359      17.66633       22.9589      
    696000   1.0324527      18.390898      22.908748    
    697000   0.95414625     17.550751      22.967478    
    698000   1.0122567      17.318806      22.755711    
    699000   1.0528444      17.662778      22.40673     
    700000   1.016338       17.548807      22.22891     
    701000   0.9995747      17.759502      22.094477    
    702000   1.0308549      18.597101      21.940702    
    703000   1.0368231      17.099619      22.181829    
    704000   0.98732308     17.832387      22.122433    
    705000   1.0495166      17.743871      21.696288    
    706000   1.0027579      17.632636      21.48679     
    707000   0.98866678     17.294991      21.030551    
    708000   0.95031503     17.702248      21.014329    
    709000   0.96473109     18.378924      20.651023    
    710000   1.0198811      18.203927      20.361542    
    711000   0.93182617     17.45772       20.297218    
    712000   1.0136341      17.828435      20.198257    
    713000   0.95938521     17.349612      19.966957    
    714000   1.0025923      17.900591      19.634968    
    715000   1.0098196      17.690523      19.629115    
    716000   0.99520478     18.045315      19.495125    
    717000   0.96293052     17.66319       19.481356    
    718000   0.99931312     17.9038        19.445591    
    719000   1.0155169      17.722962      19.173334    
    720000   0.96262633     17.248929      18.975182    
    721000   1.0171863      18.510739      18.834059    
    722000   1.0004674      17.525532      18.678651    
    723000   1.0336409      17.574789      18.462763    
    724000   1.0150039      17.327906      18.461908    
    725000   1.0045459      17.553694      18.302306    
    726000   1.0006551      17.312407      18.319949    
    727000   0.98538207     18.480418      18.370283    
    728000   1.0540402      17.595174      18.247669    
    729000   1.0364911      18.158946      17.957988    
    730000   0.95091277     17.635056      17.854776    
    731000   1.0117804      18.050107      17.791096    
    732000   1.0039507      17.273045      17.749198    
    733000   1.0584079      17.825546      17.804354    
    734000   1.0232297      17.876522      17.745139    
    735000   1.0390788      17.517123      17.718335    
    736000   0.99823535     18.51566       17.69034     
    737000   0.98343433     17.46402       17.746782    
    738000   1.0246855      17.258318      17.551441    
    739000   1.027953       17.030418      17.622577    
    740000   0.99938019     17.686355      17.464992    
    741000   0.9930968      17.618043      17.43095     
    742000   0.97243358     17.550834      17.106239    
    743000   0.99983305     17.10124       16.983048    
    744000   1.0108699      17.483481      16.666442    
    745000   1.0024978      17.535575      16.792417    
    746000   0.97489246     17.197407      16.552267    
    747000   0.97670803     17.387889      16.268493    
    748000   1.00314        17.801998      16.233157    
    749000   1.0136348      17.278864      16.255602    
    750000   0.93331511     17.049391      16.259045    
    751000   0.99276634     17.072145      16.343898    
    752000   0.98958655     17.819398      16.441448    
    753000   0.9760522      17.248516      16.426271    
    754000   1.0138519      17.755727      16.232606    
    755000   1.036912       17.434617      16.046854    
    756000   0.98877837     17.12809       15.991504    
    757000   1.0023846      17.440654      15.867899    
    758000   1.0207112      17.073812      15.913496    
    759000   1.020262       17.813401      15.927695    
    760000   1.029128       17.800844      15.910399    
    761000   1.0423158      16.785199      15.786876    
    762000   0.97898233     17.849937      15.53482     
    763000   1.0007858      17.550964      15.381673    
    764000   0.98856588     17.203888      15.44584     
    765000   0.98616983     16.993683      15.473555    
    766000   0.99318864     16.992638      15.54709     
    767000   1.0163471      17.603753      15.419336    
    768000   0.92506088     17.501659      15.362617    
    769000   1.0125804      17.327308      15.238245    
    770000   1.0093967      17.357241      15.087866    
    771000   1.0013768      17.538794      14.868993    
    772000   0.96502643     17.220706      14.951794    
    773000   0.99908235     17.329929      14.954024    
    774000   0.94784171     16.826067      14.954978    
    775000   1.0022073      18.017036      14.656673    
    776000   1.0076253      17.931914      14.456532    
    777000   1.0114539      17.799961      14.381406    
    778000   1.0321563      17.135485      14.176959    
    779000   0.99227896     17.336783      13.969239    
    780000   1.0507524      17.672914      13.802856    
    781000   0.97067922     17.282771      13.628915    
    782000   1.0149869      17.146942      13.482681    
    783000   1.000595       17.616643      12.961196    
    784000   1.0261391      18.074816      12.833125    
    785000   0.99368239     17.192974      12.727494    
    786000   1.0162146      17.584521      12.603895    
    787000   0.9904366      17.191274      12.344628    
    788000   1.0208528      17.941612      12.378801    
    789000   0.99077092     16.944055      12.29184     
    790000   1.0055093      17.500371      12.131375    
    791000   0.98230629     17.291124      11.972834    
    792000   1.0640493      17.353334      12.122641    
    793000   0.98593881     17.780859      11.982937    
    794000   1.0144816      17.191433      11.821593    
    795000   0.9922852      16.817896      11.542191    
    796000   0.98004065     16.87981       11.379778    
    797000   1.0055012      17.117471      11.22782     
    798000   1.0166569      16.846896      11.017707    
    799000   0.97335136     17.370569      10.725128    
    800000   0.98016691     17.606526      10.691609    
    801000   1.0407874      17.109547      10.69512     
    802000   1.0185111      17.265467      10.505339    
    803000   0.98362399     16.907104      10.345423    
    804000   1.037468       16.715623      10.064914    
    805000   1.0155455      17.488445      9.8178906    
    806000   0.99385894     17.304607      9.7526345    
    807000   1.0148895      17.245022      9.6391417    
    808000   1.0440705      17.909247      9.6459577    
    809000   1.0424688      17.594108      9.3570028    
    810000   1.040669       17.491863      9.3566782    
    811000   0.97040579     16.628281      9.1732554    
    812000   1.000572       16.87929       8.9955005    
    813000   0.99655271     17.463791      8.848665     
    814000   0.9904424      17.301269      8.7741364    
    815000   1.0343819      17.10761       8.5534766    
    816000   1.0116191      17.341569      8.2200369    
    817000   0.98596397     16.956349      7.9895382    
    818000   0.9612137      16.637061      7.8614298    
    819000   1.0159943      17.19587       7.717355     
    820000   1.0517221      17.046069      7.7425815    
    821000   0.99378056     17.107494      7.5662371    
    822000   0.97065186     17.166331      7.8062066    
    823000   1.0376043      17.57456       7.5039324    
    824000   1.0526483      17.348532      7.4153358    
    825000   1.0178543      16.961127      7.4191707    
    826000   1.0377917      18.336171      7.2169599    
    827000   0.99213388     17.233018      7.1504287    
    828000   1.0085693      17.136908      7.2530177    
Fix halt condition for fix-id 3 met on step 829000 with value 6.96139795043291 (src/fix_halt.cpp:237)
    829000   1.0102328      17.487286      6.961398     
Loop time of 1027.77 on 2 procs for 729000 steps with 1001 atoms

Performance: 612840.080 tau/day, 709.306 timesteps/s
123.1% CPU use with 1 MPI tasks x 2 OpenMP threads

MPI task timing breakdown:
Section |  min time  |  avg time  |  max time  |%varavg| %total
---------------------------------------------------------------
Pair    | 161.55     | 161.55     | 161.55     |   0.0 | 15.72
Bond    | 19.268     | 19.268     | 19.268     |   0.0 |  1.87
Neigh   | 799.84     | 799.84     | 799.84     |   0.0 | 77.82
Comm    | 0.27484    | 0.27484    | 0.27484    |   0.0 |  0.03
Output  | 2.7994     | 2.7994     | 2.7994     |   0.0 |  0.27
Modify  | 41.283     | 41.283     | 41.283     |   0.0 |  4.02
Other   |            | 2.758      |            |       |  0.27

Nlocal:           1001 ave        1001 max        1001 min
Histogram: 1 0 0 0 0 0 0 0 0 0
Nghost:              0 ave           0 max           0 min
Histogram: 1 0 0 0 0 0 0 0 0 0
Neighs:         206642 ave      206642 max      206642 min
Histogram: 1 0 0 0 0 0 0 0 0 0

Total # of neighbors = 206642
Ave neighs/atom = 206.43556
Ave special neighs/atom = 1.998002
Neighbor list builds = 7197
Dangerous builds = 0

# This simulation is done
# Move onto the next one
clear
  using 2 OpenMP thread(s) per MPI task
package omp 0
using multi-threaded neighbor list subroutines
next f
jump SELF

###
# Reference paper:
# K. Kremer and G. S. Grest
# Dynamics of entangled linear polymer melts: A molecular-dynamics simulation
# J Chem Phys 92, 5057 (1990)

##################################
# MIHIR: for branched polymers
# LJ minimum first to expand and explore, then collapse
###

###
# Looping through the various N1B4 polymers to simulate,
# define variables to switch through
variable f index bb51nuc1bl25bn4d30tot100V2 bb101nuc1bl50bn4d30tot200V2 bb151nuc1bl75bn4d30tot300V2 bb201nuc1bl100bn4d30tot400V2 bb251nuc1bl125bn4d30tot500V2 bb301nuc1bl150bn4d30tot600V2 bb351nuc1bl175bn4d30tot700V2 bb401nuc1bl200bn4d30tot800V2 bb451nuc1bl225bn4d30tot900V2 bb501nuc1bl250bn4d30tot1000V2 bb551nuc1bl275bn4d30tot1100V2 bb601nuc1bl300bn4d30tot1200V2
# variable f index bb51nuc1bl25bn4d30tot100V3 bb101nuc1bl50bn4d30tot200V3 bb151nuc1bl75bn4d30tot300V3 bb201nuc1bl100bn4d30tot400V3 bb251nuc1bl125bn4d30tot500V3 bb301nuc1bl150bn4d30tot600V3 bb351nuc1bl175bn4d30tot700V3 bb401nuc1bl200bn4d30tot800V3 bb451nuc1bl225bn4d30tot900V3 bb501nuc1bl250bn4d30tot1000V3 bb551nuc1bl275bn4d30tot1100V3 bb601nuc1bl300bn4d30tot1200V3
# variable f index bb51nuc1bl25bn4d30tot100 bb101nuc1bl50bn4d30tot200 bb151nuc1bl75bn4d30tot300 bb201nuc1bl100bn4d30tot400 bb251nuc1bl125bn4d30tot500 bb301nuc1bl150bn4d30tot600 bb351nuc1bl175bn4d30tot700 bb401nuc1bl200bn4d30tot800 bb451nuc1bl225bn4d30tot900 bb501nuc1bl250bn4d30tot1000 bb551nuc1bl275bn4d30tot1100 bb601nuc1bl300bn4d30tot1200
###


###
# Box and units  (use LJ units and periodic boundaries)
###

units lj
log N1B4/trial2/logs2/$f.log
log N1B4/trial2/logs2/bb551nuc1bl275bn4d30tot1100V2.log
