#atom_style bond #no stiffness
atom_style angle #with stiffness

boundary        p p p
###
# Pair interactions require lists of neighbours to be calculated
###

#neighbor 0.3 bin
neighbor 4 bin

neigh_modify every 1 delay 1 check yes
atom_modify sort 0 0
### Generate RESTART file, SPECIAL format, not a .txt file ###
### Useful if simulation crashes ###

restart 1000000 N1B5/trial2/restarts/$f.restart
restart 1000000 N1B5/trial2/restarts/bb320nuc1bl160bn5d30tot800V2.restart
#############################



### READ "start" data file ###

read_data N1B5/trial2/dats2/$f.dat
read_data N1B5/trial2/dats2/bb320nuc1bl160bn5d30tot800V2.dat
Reading data file ...
  orthogonal box = (-1000 -1000 -1000) to (1000 1000 1000)
  1 by 1 by 1 MPI processor grid
  reading atoms ...
  801 atoms
  scanning bonds ...
  4 = max bonds/atom
  scanning angles ...
  10 = max angles/atom
  reading bonds ...
  800 bonds
  reading angles ...
  805 angles
Finding 1-2 1-3 1-4 neighbors ...
  special bond factors lj:    0        0        0       
  special bond factors coul:  0        0        0       
     5 = max # of 1-2 neighbors
     5 = max # of 1-3 neighbors
    10 = max # of 1-4 neighbors
    15 = max # of special neighbors
  special bonds CPU = 0.003 seconds
  read_data CPU = 0.307 seconds

######################

### READ "REstart" data file ###

######################



###
# Define groups (atom type 1 is group 'all')
###
group all type 1
801 atoms in group all


###
# Dump configs - "simple dumpings"
###

###
# Dump configs + box coords
###

dump   1   all   custom   1000  N1B5/trial2/trjs/$f.lammpstrj  id  x y z  ix iy iz
dump   1   all   custom   1000  N1B5/trial2/trjs/bb320nuc1bl160bn5d30tot800V2.lammpstrj  id  x y z  ix iy iz
dump_modify   1   format line "%d %.5f %.5f %.5f %d %d %d"

########################################################################


###################################################################
# Stiffness term
#
# E = K * (1+cos(theta)), K>0
#
angle_style   cosine
#change this coefficient to change stiffness (e.g. 1,5,10)
angle_coeff   1 1.0
###################################################################

###################################################################
# Pair interaction between non-bonded atoms
#
#  Lennard-Jones 12-6 potential with cutoff:
#  potential E=4epsilon[ (sigma/r)^12 - (sigma/r)^6]  for r<r_cut
#
#  1.12246 = 2^(1/6) is the minimum of the potential


pair_style      lj/cut 1.12246152962189
#pair_style      lj/cut 3

#
#  pair_modify shift yes adds a constant to the potential such

#  that E(r_cut)=0. Forces remains unchanged.
#

pair_modify     shift yes

#
#  pair_coeff for lj/cut, specify 4:
#    * atom type interacting with
#    * atom type
#    * epsilon (energy units)
#    * sigma (distance units)
#

pair_coeff      1 1 1.0 1.0
###################################################################

###################################################################
# Pair interaction between non-bonded atoms
#
#  soft potential, for PUSHING apart overlapping atoms
#  potential E=A*(1 + cos(pi*r/r_c))
#
#  1.12246 = 2^(1/6) is the cut-off r_c

#pair_style     soft 1.12246152962189

#
#  pair_coeff for soft, specify 3:
#    * atom type interacting with
#    * atom type
#    * A
#
#

#pair_coeff      1 1 100.0
###################################################################

###################################################################
# Pair interaction between bonded atoms
#
# Fene potential + Lennard Jones 12-6:

#
#  E= - 0.5 K R0^2 ln[ 1- (r/R0)^2]
#     + 4epsilon[ (sigma/r)^12 - (sigma/r)^6] + epsilon
#

bond_style   fene


#
# For style fene, specify:
#   * bond type
#   * K (energy/distance^2)
#   * R0 (distance)
#   * epsilon (energy)  (LJ component)
#   * sigma (distance)  (LJ component)
#


special_bonds fene #<=== I M P O R T A N T (new command)
Finding 1-2 1-3 1-4 neighbors ...
  special bond factors lj:    0        1        1       
  special bond factors coul:  0        1        1       
     5 = max # of 1-2 neighbors
    15 = max # of special neighbors
  special bonds CPU = 0.002 seconds

bond_coeff   1   30   2   1.0   1.0


###################################################

###################################################################
# Pair interaction between bonded atoms
#
# Harmonic potential:
#
#  E= K * (R-R0)^2
#

#bond_style   harmonic

#
# For style harmonic, specify:
#   * bond type
#   * K (energy/distance^2)
#   * R0 (distance)
#

#bond_coeff   1   60.0   1.0
#bond_coeff   2   harmonic 0.1   1.0

###################################################
compute 1 all gyration
variable rog equal c_1
#compute 2 all coord/atom cutoff 1.1

#dump 2 all custom 10000 contact_number.dump id c_2


###
# Set up fixes
###
thermo_style   custom   step  temp enthalpy c_1
fix 1 all nve   ###NVE ensemble

fix 2 all   langevin   1.0 1.0 1.0  778655   ###Langevin integrator Tstart Tstop 1/friction rndseed


##### Sample thermodynamic info  (temperature, energy, pressure, etc.) #####
thermo 1000









############################################################################

###
# set timestep of integrator

timestep 0.01

###
# run integration for a number of steps
###
#run 0
#variable r equal c_1
#if "$r < 63.1" then "quit 1"

# lj potential minimum, cause molecule to explore
run 100000
Generated 0 of 0 mixed pair_coeff terms from geometric mixing rule
Last active /omp style is angle_style cosine/omp
Neighbor list info ...
  update: every = 1 steps, delay = 1 steps, check = yes
  max neighbors/atom: 2000, page size: 100000
  master list distance cutoff = 5.1224615
  ghost atom cutoff = 5.1224615
  binsize = 2.5612308, bins = 781 781 781
  1 neighbor lists, perpetual/occasional/extra = 1 0 0
  (1) pair lj/cut/omp, perpetual
      attributes: half, newton on, omp
      pair build: half/bin/newton/omp
      stencil: half/bin/3d
      bin: standard
WARNING: Communication cutoff 5.12246152962189 is shorter than a bond length based estimate of 5.455. This may lead to errors. (src/comm.cpp:723)
Per MPI rank memory allocation (min/avg/max) = 1863 | 1863 | 1863 Mbytes
   Step          Temp         Enthalpy         c_1      
         0   0              13.266274      84.000399    
      1000   1.0430846      17.551645      83.300156    
      2000   1.0105367      18.348063      82.430362    
      3000   1.0297036      18.616143      81.851947    
      4000   1.0017797      17.897331      81.082868    
      5000   1.0112015      18.672598      80.33275     
      6000   0.97211646     19.150467      79.655296    
      7000   1.0369592      19.059609      79.267947    
      8000   0.95964293     18.831389      78.513146    
      9000   1.0405864      18.902368      77.946252    
     10000   1.0128378      19.282129      77.424778    
     11000   1.0046275      19.008763      77.013992    
     12000   1.0054798      19.687177      76.49445     
     13000   1.0335933      19.08748       76.183193    
     14000   0.97407742     19.055701      75.828608    
     15000   0.99538303     19.426567      75.37148     
     16000   0.99476422     19.355294      74.888955    
     17000   0.98481449     19.771235      74.525164    
     18000   0.99265629     18.700687      73.967065    
     19000   0.98438793     19.885202      73.528441    
     20000   0.98874251     19.641662      73.222481    
     21000   1.0344053      19.853458      72.873974    
     22000   1.0061465      19.377904      72.489042    
     23000   1.0289322      19.635284      72.142659    
     24000   0.99862232     19.559275      71.901293    
     25000   1.0305299      20.135417      71.79274     
     26000   1.014551       19.627657      71.638027    
     27000   0.96863849     19.475965      71.344675    
     28000   0.9806066      20.109858      70.938325    
     29000   1.0245588      20.005575      70.694476    
     30000   1.0482715      20.30511       70.174599    
     31000   0.96296321     19.359734      70.237647    
     32000   0.9990045      20.028409      70.003899    
     33000   1.0682426      19.766748      69.806442    
     34000   1.0304958      20.131329      69.65632     
     35000   1.0293169      19.533064      69.434259    
     36000   1.0064717      20.052457      68.936205    
     37000   1.0046203      19.122889      68.78802     
     38000   0.97646148     19.676507      68.426687    
     39000   0.98379751     20.045611      68.084595    
     40000   1.0259813      19.278705      67.663573    
     41000   1.0341201      20.341659      67.386317    
     42000   0.97170671     19.976674      67.29595     
     43000   0.95903592     19.966856      67.028641    
     44000   0.95921238     20.11576       66.907039    
     45000   1.0051118      19.442632      66.902191    
     46000   0.98810722     20.047491      66.644681    
     47000   0.99393447     19.65975       66.285901    
     48000   0.97127303     19.492112      65.885624    
     49000   1.0195791      19.799109      65.512851    
     50000   0.98447605     19.639901      65.211091    
     51000   1.0529398      20.121948      65.037745    
     52000   0.98836583     19.826406      64.869957    
     53000   0.99175858     19.890769      64.768651    
     54000   0.97835608     20.088529      64.687608    
     55000   1.0397101      20.49883       64.467285    
     56000   1.0186671      19.806458      64.067045    
     57000   0.97590633     20.239304      63.808887    
     58000   0.99408976     20.567766      63.682617    
     59000   0.99998761     19.987023      63.531557    
     60000   1.0182184      20.106565      63.26396     
     61000   0.99868891     19.916023      63.075816    
     62000   1.0077032      20.413455      63.133731    
     63000   1.0259916      20.76853       62.965367    
     64000   0.98683244     20.322523      62.892449    
     65000   0.99110616     20.566743      62.452102    
     66000   0.97154375     20.177253      62.390889    
     67000   0.9887665      19.825782      62.14949     
     68000   1.0027464      19.905033      61.995961    
     69000   1.0373006      20.214553      61.737096    
     70000   0.99483338     20.219793      61.709826    
     71000   0.96996463     19.929125      61.728181    
     72000   0.9813431      20.073483      61.420214    
     73000   0.97982903     19.860202      61.242602    
     74000   0.98899581     20.69144       61.103624    
     75000   0.98022961     20.34855       60.775885    
     76000   1.0125402      20.443755      60.851934    
     77000   1.0376328      20.342789      60.856511    
     78000   1.001414       20.363125      60.439174    
     79000   1.0064843      20.432226      60.048262    
     80000   0.96836291     19.677807      59.980065    
     81000   0.98897262     20.110297      59.934743    
     82000   1.031208       20.427279      59.907794    
     83000   0.99371604     20.5734        59.729144    
     84000   1.0234028      20.125236      59.575716    
     85000   1.0449711      20.627524      59.716537    
     86000   0.99335633     20.307103      59.744868    
     87000   0.9618032      20.268209      59.663667    
     88000   0.97465803     19.971782      59.311194    
     89000   0.97786961     20.737265      59.233461    
     90000   1.0001936      19.866647      59.266842    
     91000   0.99703731     20.905712      59.022144    
     92000   1.0148037      20.279737      59.067543    
     93000   0.96420037     19.61725       59.115716    
     94000   0.97177475     20.072131      59.058997    
     95000   0.96841527     20.030477      58.538211    
     96000   1.0055763      19.61748       58.451909    
     97000   0.98288516     20.006095      58.237783    
     98000   1.0775247      20.392671      57.894786    
     99000   0.9760546      20.41983       57.675974    
    100000   0.94567169     20.602593      57.337074    
Loop time of 346.572 on 2 procs for 100000 steps with 801 atoms

Performance: 249298.823 tau/day, 288.540 timesteps/s
103.4% CPU use with 1 MPI tasks x 2 OpenMP threads

MPI task timing breakdown:
Section |  min time  |  avg time  |  max time  |%varavg| %total
---------------------------------------------------------------
Pair    | 1.3262     | 1.3262     | 1.3262     |   0.0 |  0.38
Bond    | 2.4986     | 2.4986     | 2.4986     |   0.0 |  0.72
Neigh   | 336.59     | 336.59     | 336.59     |   0.0 | 97.12
Comm    | 0.037275   | 0.037275   | 0.037275   |   0.0 |  0.01
Output  | 0.36045    | 0.36045    | 0.36045    |   0.0 |  0.10
Modify  | 5.3938     | 5.3938     | 5.3938     |   0.0 |  1.56
Other   |            | 0.3687     |            |       |  0.11

Nlocal:            801 ave         801 max         801 min
Histogram: 1 0 0 0 0 0 0 0 0 0
Nghost:              0 ave           0 max           0 min
Histogram: 1 0 0 0 0 0 0 0 0 0
Neighs:           5258 ave        5258 max        5258 min
Histogram: 1 0 0 0 0 0 0 0 0 0

Total # of neighbors = 5258
Ave neighs/atom = 6.5642946
Ave special neighs/atom = 1.9975031
Neighbor list builds = 1115
Dangerous builds = 0

# Replace lj potential, now collapse
pair_style      lj/cut 3

# Cutoff simul when gyration under 7
# Variable created with equal requires v_ + 'name'
fix 3 all halt 1000 v_rog < 7

run 3000000
Generated 0 of 0 mixed pair_coeff terms from geometric mixing rule
Last active /omp style is angle_style cosine/omp
Per MPI rank memory allocation (min/avg/max) = 1863 | 1863 | 1863 Mbytes
   Step          Temp         Enthalpy         c_1      
    100000   0.94567169     19.850043      57.337074    
    101000   1.0165493      19.540817      57.138632    
    102000   1.0346407      19.999081      57.162379    
    103000   1.0194724      19.57858       56.78269     
    104000   0.99175661     19.897778      56.44137     
    105000   0.93569878     19.055319      55.994554    
    106000   1.0252628      19.407352      55.885115    
    107000   1.0833427      19.557634      55.750085    
    108000   1.0263095      19.276626      55.463899    
    109000   0.98601652     18.985712      55.23795     
    110000   0.98408315     19.010053      55.103408    
    111000   0.96941806     20.101432      55.167188    
    112000   1.0258105      19.423105      55.135635    
    113000   0.99701306     19.243948      54.836116    
    114000   1.0368737      19.439004      54.788041    
    115000   0.93472284     19.418025      54.367207    
    116000   1.0163435      19.51269       54.200569    
    117000   1.0154416      19.604399      53.94314     
    118000   1.0034803      18.777733      53.596896    
    119000   1.0421879      19.253248      53.279018    
    120000   0.98606074     19.202842      53.259144    
    121000   0.99179232     18.621501      53.207992    
    122000   1.0001377      18.756953      52.970817    
    123000   0.96471331     18.689146      53.030527    
    124000   0.96438685     19.173675      52.797089    
    125000   1.0006543      18.905694      52.279835    
    126000   1.0753497      19.359675      51.892072    
    127000   1.0552448      18.812247      51.611455    
    128000   1.0217141      19.245634      51.602456    
    129000   1.0201287      19.350006      51.455501    
    130000   1.0266635      19.307773      51.30054     
    131000   1.0516065      18.905582      51.105822    
    132000   1.0277569      19.148889      50.898595    
    133000   1.0119081      19.08791       50.609064    
    134000   1.0288419      19.545012      50.437015    
    135000   1.0183263      18.8507        50.420056    
    136000   1.0021986      18.729719      50.330986    
    137000   1.0178933      18.916572      50.032108    
    138000   0.93174256     18.578832      49.907058    
    139000   1.0173009      18.736611      49.875936    
    140000   1.0164662      19.261368      49.946435    
    141000   0.98556012     18.626152      49.742366    
    142000   0.99606308     18.230574      49.683673    
    143000   1.0369424      19.270191      49.53611     
    144000   0.97474303     19.143781      49.372841    
    145000   1.0054842      18.981621      48.892177    
    146000   1.017607       18.812578      48.567744    
    147000   1.0038683      18.674148      48.353256    
    148000   0.95346901     18.999566      48.161269    
    149000   0.94622841     18.8124        48.079146    
    150000   1.0144977      18.542529      47.799457    
    151000   1.0248091      18.747807      47.629413    
    152000   0.97672534     19.08162       47.535166    
    153000   0.95781219     19.206656      47.505386    
    154000   0.99807601     18.990191      47.34874     
    155000   0.96266128     18.886097      47.021736    
    156000   1.0327429      19.626193      46.788618    
    157000   0.98995483     18.268846      46.407459    
    158000   1.0028643      18.377856      46.635348    
    159000   0.98458771     18.733953      46.537877    
    160000   1.0337209      18.90612       46.131229    
    161000   1.0189784      18.603699      46.060812    
    162000   1.0069972      18.917649      45.883974    
    163000   0.99043596     18.6101        45.69753     
    164000   1.0364633      18.651415      45.44308     
    165000   0.96150737     18.952571      45.080532    
    166000   0.97245295     18.648885      44.816671    
    167000   0.96117615     18.494831      44.64091     
    168000   1.0372274      18.675628      44.500061    
    169000   1.0250328      18.866588      44.135173    
    170000   0.96974014     19.005069      44.053284    
    171000   1.00742        19.23849       43.989725    
    172000   0.95083381     18.321562      43.806624    
    173000   1.008631       18.846902      43.636939    
    174000   1.0308344      18.692726      43.209824    
    175000   0.96518459     18.315408      42.783424    
    176000   0.96310026     18.218276      42.687987    
    177000   0.99521397     18.603229      42.374922    
    178000   1.0232519      18.41656       42.400736    
    179000   0.99976924     18.274476      42.241491    
    180000   0.97165968     18.467135      41.86782     
    181000   0.99318097     18.371475      41.631874    
    182000   0.91768021     18.198997      41.447872    
    183000   0.99923875     18.595989      41.350955    
    184000   0.98687731     18.619475      41.260012    
    185000   1.0749299      18.785032      41.085261    
    186000   1.0062573      18.757242      41.165568    
    187000   0.98988492     19.086946      41.160914    
    188000   1.0205393      19.233767      41.101638    
    189000   1.0751416      19.505598      40.879111    
    190000   1.0138526      18.390132      40.624262    
    191000   0.98398981     18.727573      40.381719    
    192000   1.0125861      18.586511      40.251688    
    193000   1.0153825      18.9588        39.917633    
    194000   1.0126319      18.982228      39.903188    
    195000   1.0177337      18.447229      39.397722    
    196000   0.95806438     18.225626      39.45383     
    197000   1.0545818      18.703577      39.284494    
    198000   0.93363575     18.132613      39.113274    
    199000   1.0515948      19.071522      38.74691     
    200000   0.98927648     18.289038      38.285946    
    201000   0.98162737     19.004909      38.138416    
    202000   0.9862971      18.478587      38.016901    
    203000   0.99207643     18.812662      37.708559    
    204000   0.95244301     18.550226      37.735445    
    205000   1.0088033      18.444472      37.628099    
    206000   1.0136538      18.724002      37.544382    
    207000   1.0108522      19.527969      37.342335    
    208000   0.97907417     17.733322      37.114144    
    209000   0.99470898     18.899456      36.931901    
    210000   0.97906412     18.225949      36.863641    
    211000   1.0139708      18.278958      36.624671    
    212000   1.0332386      18.961073      36.518238    
    213000   1.0337728      18.312672      36.28401     
    214000   1.0067191      18.585276      35.89879     
    215000   1.0157729      18.489507      35.642931    
    216000   0.98537835     18.857498      35.462962    
    217000   0.95081883     18.279727      35.423118    
    218000   0.98502341     18.555683      35.23972     
    219000   1.0036735      18.447895      34.998216    
    220000   0.98192482     18.293565      34.911688    
    221000   1.0384642      18.800253      34.677953    
    222000   0.98982721     19.058473      34.583401    
    223000   1.0494853      18.390607      34.285833    
    224000   1.0315715      18.364574      34.176358    
    225000   0.99485559     18.758396      33.844916    
    226000   1.0779125      18.99119       33.688028    
    227000   0.99978162     18.568389      33.585738    
    228000   1.0481813      18.642694      33.153625    
    229000   0.99436545     18.570307      32.68575     
    230000   0.99833925     18.185757      32.701435    
    231000   0.97459383     17.903092      32.471865    
    232000   1.0464736      18.548024      32.146321    
    233000   1.0320105      18.458356      32.27026     
    234000   1.0036875      18.150427      32.146693    
    235000   1.0124646      18.675988      32.021278    
    236000   1.0042742      18.796532      31.739929    
    237000   0.98282765     18.086687      31.295657    
    238000   0.99924026     18.542678      30.818072    
    239000   1.0051424      18.202673      30.688379    
    240000   1.004985       18.068701      30.541969    
    241000   0.98088009     18.107157      30.482222    
    242000   1.0187476      18.597498      30.101881    
    243000   0.99757207     18.386153      29.797469    
    244000   1.0023071      18.008406      29.621239    
    245000   0.92561595     17.834008      29.400361    
    246000   1.0442353      18.555042      29.148902    
    247000   0.9784357      18.345826      28.821045    
    248000   1.0215479      19.059318      28.86231     
    249000   0.98019525     17.947078      28.55449     
    250000   0.96315255     17.435402      28.246645    
    251000   0.97833171     18.197686      28.094571    
    252000   0.97259844     18.461945      28.043834    
    253000   1.0156443      18.608377      28.169223    
    254000   0.98396785     18.622852      28.108941    
    255000   0.97861111     18.115144      27.583727    
    256000   0.93265159     18.41216       27.430567    
    257000   0.95499514     19.263112      27.146268    
    258000   1.0241983      17.869045      26.893726    
    259000   0.9789259      18.388248      26.633867    
    260000   0.96840006     18.250682      26.400164    
    261000   1.0061596      18.446728      26.133626    
    262000   0.98265895     17.697096      26.038765    
    263000   1.0001146      18.342372      25.804761    
    264000   0.98366545     18.386107      25.870734    
    265000   0.96807343     17.840429      25.607576    
    266000   0.99447982     18.099916      25.315151    
    267000   1.0051587      18.518222      25.103023    
    268000   1.0166392      19.023569      25.171328    
    269000   1.0054359      18.510246      24.929447    
    270000   0.94367253     18.58033       24.822052    
    271000   0.98549143     18.131066      24.663391    
    272000   0.9968749      17.624063      24.571714    
    273000   1.0026757      17.942326      24.328332    
    274000   0.9844398      18.155181      24.287217    
    275000   0.96524103     18.539101      24.173907    
    276000   1.0062426      18.318849      24.033036    
    277000   1.0089224      18.002422      23.669327    
    278000   0.98790433     18.115484      23.424881    
    279000   0.98898461     17.718258      23.236087    
    280000   1.0347174      18.208369      23.038448    
    281000   0.99691618     18.176114      22.667739    
    282000   1.013229       18.089795      22.316667    
    283000   1.0622402      17.469838      22.123521    
    284000   0.97472862     18.395015      21.757603    
    285000   0.97938166     17.866264      21.514383    
    286000   1.0081263      18.052268      21.575501    
    287000   1.0328462      18.397624      21.547525    
    288000   0.97317227     18.360717      21.26811     
    289000   1.012392       17.659371      21.413151    
    290000   1.0012195      18.05676       21.332656    
    291000   1.0495048      18.672275      21.179722    
    292000   1.0410539      17.73337       20.982827    
    293000   1.0081443      18.023286      20.847886    
    294000   1.0045784      17.960514      20.649906    
    295000   1.0166472      18.149941      20.319503    
    296000   0.97572856     17.679022      20.251044    
    297000   0.97424837     17.903082      19.89973     
    298000   1.0293819      17.907435      19.597173    
    299000   0.97712839     18.152819      19.367123    
    300000   0.95465441     18.289746      19.10192     
    301000   0.91709781     16.984305      18.685838    
    302000   0.99585733     18.523924      18.474614    
    303000   1.035152       17.893215      18.108156    
    304000   0.99259765     17.757472      18.004601    
    305000   0.95499159     18.449691      17.583073    
    306000   1.0508978      17.649105      17.252828    
    307000   1.0263755      17.501193      17.117617    
    308000   0.98266247     17.729586      16.874309    
    309000   0.99728766     17.809978      16.525821    
    310000   1.0072577      18.040826      16.288734    
    311000   0.98214783     18.331934      15.94273     
    312000   1.0070923      18.238339      15.80922     
    313000   1.0001659      17.338267      15.638643    
    314000   0.98067045     18.464602      15.527066    
    315000   1.0280871      18.348663      15.408771    
    316000   0.97429145     17.622797      15.494704    
    317000   0.98401087     18.103316      15.14262     
    318000   1.0122557      17.796704      15.071995    
    319000   1.0533269      18.342286      15.0049      
    320000   0.97702765     18.065586      14.827207    
    321000   0.9584709      17.755861      14.692549    
    322000   1.0061734      17.680965      14.788286    
    323000   1.062558       17.924626      14.513036    
    324000   0.97571988     17.543441      14.094054    
    325000   0.99951459     17.433722      14.217349    
    326000   0.97692168     18.011599      14.177326    
    327000   1.02011        17.576628      13.980412    
    328000   0.98354301     17.229231      13.982911    
    329000   1.0112439      17.988334      13.838717    
    330000   0.96911181     18.193426      13.619217    
    331000   0.97652701     17.882619      13.592411    
    332000   0.98416967     17.373508      13.563968    
    333000   0.9818694      17.217434      13.749087    
    334000   1.0318877      17.653637      13.672541    
    335000   0.99436178     18.019404      13.626019    
    336000   1.0096823      18.151561      13.167086    
    337000   0.98579926     17.744577      12.930971    
    338000   0.9721704      17.951409      12.585248    
    339000   1.0311275      17.988922      12.513225    
    340000   1.0245595      18.093572      12.525305    
    341000   1.0178761      18.836746      12.664006    
    342000   1.0389245      18.416468      12.319117    
    343000   0.95180527     17.059037      12.126639    
    344000   1.0164434      17.456651      11.861407    
    345000   0.92962941     17.209349      11.81318     
    346000   1.0371456      18.192554      11.62784     
    347000   0.98378463     17.603863      11.416069    
    348000   0.98480386     17.794191      11.28187     
    349000   1.0310695      17.808487      11.054551    
    350000   0.96921868     17.588416      11.137618    
    351000   1.0414602      18.046475      11.052019    
    352000   1.0161083      18.475135      10.649348    
    353000   1.0025394      17.65372       10.242592    
    354000   0.96902678     17.351873      10.001168    
    355000   0.99332268     17.220065      9.9464614    
    356000   0.98456833     17.973133      9.6285395    
    357000   0.98521315     17.283599      9.4529316    
    358000   1.0469062      17.962763      9.2353593    
    359000   0.97493579     17.383834      8.741837     
    360000   1.0059485      17.694508      8.7405425    
    361000   1.0209166      17.650492      8.7906384    
    362000   0.94142803     17.624097      8.4234732    
    363000   0.9839297      17.443263      8.4206672    
    364000   0.96691305     17.382756      8.2936303    
    365000   1.0290521      17.969949      8.050213     
    366000   1.0438516      17.579028      7.9815956    
    367000   0.96680381     17.693831      7.8580262    
    368000   1.0260792      18.128891      7.8089437    
    369000   0.98663994     17.185738      7.6111589    
    370000   1.0303211      17.855981      7.437952     
    371000   1.0189448      17.612878      7.1874329    
Fix halt condition for fix-id 3 met on step 372000 with value 6.967293280174699 (src/fix_halt.cpp:237)
    372000   1.0042864      17.763877      6.9672933    
Loop time of 321.748 on 2 procs for 272000 steps with 801 atoms

Performance: 730410.814 tau/day, 845.383 timesteps/s
122.3% CPU use with 1 MPI tasks x 2 OpenMP threads

MPI task timing breakdown:
Section |  min time  |  avg time  |  max time  |%varavg| %total
---------------------------------------------------------------
Pair    | 46.724     | 46.724     | 46.724     |   0.0 | 14.52
Bond    | 6.0133     | 6.0133     | 6.0133     |   0.0 |  1.87
Neigh   | 253.94     | 253.94     | 253.94     |   0.0 | 78.92
Comm    | 0.087356   | 0.087356   | 0.087356   |   0.0 |  0.03
Output  | 0.87223    | 0.87223    | 0.87223    |   0.0 |  0.27
Modify  | 13.233     | 13.233     | 13.233     |   0.0 |  4.11
Other   |            | 0.882      |            |       |  0.27

Nlocal:            801 ave         801 max         801 min
Histogram: 1 0 0 0 0 0 0 0 0 0
Nghost:              0 ave           0 max           0 min
Histogram: 1 0 0 0 0 0 0 0 0 0
Neighs:         135800 ave      135800 max      135800 min
Histogram: 1 0 0 0 0 0 0 0 0 0

Total # of neighbors = 135800
Ave neighs/atom = 169.53808
Ave special neighs/atom = 1.9975031
Neighbor list builds = 2597
Dangerous builds = 0

# This simulation is done
# Move onto the next one
clear
  using 2 OpenMP thread(s) per MPI task
package omp 0
using multi-threaded neighbor list subroutines
next f
jump SELF

###
# Reference paper:
# K. Kremer and G. S. Grest
# Dynamics of entangled linear polymer melts: A molecular-dynamics simulation
# J Chem Phys 92, 5057 (1990)

##################################
# MIHIR: for branched polymers
# LJ minimum first to expand and explore, then collapse
###

###
# Looping through the various N1B5 polymers to simulate,
# define variables to switch through
variable f index bb40nuc1bl20bn5d30tot100V2 bb80nuc1bl40bn5d30tot200V2 bb120nuc1bl60bn5d30tot300V2 bb160nuc1bl80bn5d30tot400V2 bb200nuc1bl100bn5d30tot500V2 bb240nuc1bl120bn5d30tot600V2 bb280nuc1bl140bn5d30tot700V2 bb320nuc1bl160bn5d30tot800V2 bb360nuc1bl180bn5d30tot900V2 bb400nuc1bl200bn5d30tot1000V2 bb440nuc1bl220bn5d30tot1100V2 bb480nuc1bl240bn5d30tot1200V2
#variable f index bb40nuc1bl20bn5d30tot100 bb80nuc1bl40bn5d30tot200 bb120nuc1bl60bn5d30tot300 bb160nuc1bl80bn5d30tot400 bb200nuc1bl100bn5d30tot500 bb240nuc1bl120bn5d30tot600 bb280nuc1bl140bn5d30tot700 bb320nuc1bl160bn5d30tot800 bb360nuc1bl180bn5d30tot900 bb400nuc1bl200bn5d30tot1000 bb440nuc1bl220bn5d30tot1100 bb480nuc1bl240bn5d30tot1200
# variable f index
###


###
# Box and units  (use LJ units and periodic boundaries)
###

units lj
log N1B5/trial2/logs/$f.log
log N1B5/trial2/logs/bb360nuc1bl180bn5d30tot900V2.log
