#atom_style bond #no stiffness
atom_style angle #with stiffness

boundary        p p p
###
# Pair interactions require lists of neighbours to be calculated
###

#neighbor 0.3 bin
neighbor 4 bin

neigh_modify every 1 delay 1 check yes
atom_modify sort 0 0
### Generate RESTART file, SPECIAL format, not a .txt file ###
### Useful if simulation crashes ###

restart 1000000 N1B5/trial2/restarts/$f.restart
restart 1000000 N1B5/trial2/restarts/bb360nuc1bl180bn5d30tot900V2.restart
#############################



### READ "start" data file ###

read_data N1B5/trial2/dats2/$f.dat
read_data N1B5/trial2/dats2/bb360nuc1bl180bn5d30tot900V2.dat
Reading data file ...
  orthogonal box = (-1000 -1000 -1000) to (1000 1000 1000)
  1 by 1 by 1 MPI processor grid
  reading atoms ...
  901 atoms
  scanning bonds ...
  4 = max bonds/atom
  scanning angles ...
  10 = max angles/atom
  reading bonds ...
  900 bonds
  reading angles ...
  905 angles
Finding 1-2 1-3 1-4 neighbors ...
  special bond factors lj:    0        0        0       
  special bond factors coul:  0        0        0       
     5 = max # of 1-2 neighbors
     5 = max # of 1-3 neighbors
    10 = max # of 1-4 neighbors
    15 = max # of special neighbors
  special bonds CPU = 0.003 seconds
  read_data CPU = 0.269 seconds

######################

### READ "REstart" data file ###

######################



###
# Define groups (atom type 1 is group 'all')
###
group all type 1
901 atoms in group all


###
# Dump configs - "simple dumpings"
###

###
# Dump configs + box coords
###

dump   1   all   custom   1000  N1B5/trial2/trjs/$f.lammpstrj  id  x y z  ix iy iz
dump   1   all   custom   1000  N1B5/trial2/trjs/bb360nuc1bl180bn5d30tot900V2.lammpstrj  id  x y z  ix iy iz
dump_modify   1   format line "%d %.5f %.5f %.5f %d %d %d"

########################################################################


###################################################################
# Stiffness term
#
# E = K * (1+cos(theta)), K>0
#
angle_style   cosine
#change this coefficient to change stiffness (e.g. 1,5,10)
angle_coeff   1 1.0
###################################################################

###################################################################
# Pair interaction between non-bonded atoms
#
#  Lennard-Jones 12-6 potential with cutoff:
#  potential E=4epsilon[ (sigma/r)^12 - (sigma/r)^6]  for r<r_cut
#
#  1.12246 = 2^(1/6) is the minimum of the potential


pair_style      lj/cut 1.12246152962189
#pair_style      lj/cut 3

#
#  pair_modify shift yes adds a constant to the potential such

#  that E(r_cut)=0. Forces remains unchanged.
#

pair_modify     shift yes

#
#  pair_coeff for lj/cut, specify 4:
#    * atom type interacting with
#    * atom type
#    * epsilon (energy units)
#    * sigma (distance units)
#

pair_coeff      1 1 1.0 1.0
###################################################################

###################################################################
# Pair interaction between non-bonded atoms
#
#  soft potential, for PUSHING apart overlapping atoms
#  potential E=A*(1 + cos(pi*r/r_c))
#
#  1.12246 = 2^(1/6) is the cut-off r_c

#pair_style     soft 1.12246152962189

#
#  pair_coeff for soft, specify 3:
#    * atom type interacting with
#    * atom type
#    * A
#
#

#pair_coeff      1 1 100.0
###################################################################

###################################################################
# Pair interaction between bonded atoms
#
# Fene potential + Lennard Jones 12-6:

#
#  E= - 0.5 K R0^2 ln[ 1- (r/R0)^2]
#     + 4epsilon[ (sigma/r)^12 - (sigma/r)^6] + epsilon
#

bond_style   fene


#
# For style fene, specify:
#   * bond type
#   * K (energy/distance^2)
#   * R0 (distance)
#   * epsilon (energy)  (LJ component)
#   * sigma (distance)  (LJ component)
#


special_bonds fene #<=== I M P O R T A N T (new command)
Finding 1-2 1-3 1-4 neighbors ...
  special bond factors lj:    0        1        1       
  special bond factors coul:  0        1        1       
     5 = max # of 1-2 neighbors
    15 = max # of special neighbors
  special bonds CPU = 0.001 seconds

bond_coeff   1   30   2   1.0   1.0


###################################################

###################################################################
# Pair interaction between bonded atoms
#
# Harmonic potential:
#
#  E= K * (R-R0)^2
#

#bond_style   harmonic

#
# For style harmonic, specify:
#   * bond type
#   * K (energy/distance^2)
#   * R0 (distance)
#

#bond_coeff   1   60.0   1.0
#bond_coeff   2   harmonic 0.1   1.0

###################################################
compute 1 all gyration
variable rog equal c_1
#compute 2 all coord/atom cutoff 1.1

#dump 2 all custom 10000 contact_number.dump id c_2


###
# Set up fixes
###
thermo_style   custom   step  temp enthalpy c_1
fix 1 all nve   ###NVE ensemble

fix 2 all   langevin   1.0 1.0 1.0  778655   ###Langevin integrator Tstart Tstop 1/friction rndseed


##### Sample thermodynamic info  (temperature, energy, pressure, etc.) #####
thermo 1000









############################################################################

###
# set timestep of integrator

timestep 0.01

###
# run integration for a number of steps
###
#run 0
#variable r equal c_1
#if "$r < 63.1" then "quit 1"

# lj potential minimum, cause molecule to explore
run 100000
Generated 0 of 0 mixed pair_coeff terms from geometric mixing rule
Last active /omp style is angle_style cosine/omp
Neighbor list info ...
  update: every = 1 steps, delay = 1 steps, check = yes
  max neighbors/atom: 2000, page size: 100000
  master list distance cutoff = 5.1224615
  ghost atom cutoff = 5.1224615
  binsize = 2.5612308, bins = 781 781 781
  1 neighbor lists, perpetual/occasional/extra = 1 0 0
  (1) pair lj/cut/omp, perpetual
      attributes: half, newton on, omp
      pair build: half/bin/newton/omp
      stencil: half/bin/3d
      bin: standard
WARNING: Communication cutoff 5.12246152962189 is shorter than a bond length based estimate of 5.455. This may lead to errors. (src/comm.cpp:723)
Per MPI rank memory allocation (min/avg/max) = 1863 | 1863 | 1863 Mbytes
   Step          Temp         Enthalpy         c_1      
         0   0              13.219824      95.817814    
      1000   0.97641188     17.188489      95.017052    
      2000   1.0340184      17.774611      94.027139    
      3000   1.0203266      18.082992      93.220833    
      4000   1.0425693      18.313709      92.502087    
      5000   0.97873991     18.238306      91.791629    
      6000   0.9915994      18.482161      91.065428    
      7000   1.024756       18.992865      90.263734    
      8000   1.0580758      18.835206      89.770871    
      9000   1.0336507      19.104019      89.398885    
     10000   0.98277318     19.062003      88.863103    
     11000   1.0072928      19.517367      88.350318    
     12000   1.0409767      18.890442      88.047443    
     13000   1.0197353      18.929418      87.513301    
     14000   0.994841       19.559927      86.92671     
     15000   0.96541001     19.77888       86.432882    
     16000   1.0769224      19.872239      86.066446    
     17000   0.95493205     19.024366      85.607639    
     18000   1.0129157      19.99583       85.282311    
     19000   0.95049718     19.641997      84.681168    
     20000   1.0245999      19.095471      84.01646     
     21000   1.0020102      19.202859      83.637563    
     22000   0.93611563     19.286042      83.091205    
     23000   0.9735495      19.353902      82.623762    
     24000   0.9822279      19.853334      82.301161    
     25000   0.96185957     19.304142      82.139558    
     26000   0.99508719     19.493888      81.889975    
     27000   0.99824931     19.336419      81.615098    
     28000   0.99693005     19.769835      81.164846    
     29000   0.9293322      19.68458       80.701289    
     30000   0.95915125     19.485795      80.406415    
     31000   1.0181899      19.44001       80.167219    
     32000   0.99932165     19.74226       79.865639    
     33000   0.98794199     19.638714      79.528457    
     34000   0.96381168     19.78652       79.326517    
     35000   1.0413069      19.932995      79.202497    
     36000   0.99962053     19.728768      78.924879    
     37000   0.94370746     20.150398      78.674909    
     38000   1.008724       20.048777      78.370904    
     39000   0.96981417     19.591803      78.264769    
     40000   1.0186635      19.994736      78.43411     
     41000   0.99920039     20.121551      78.365974    
     42000   1.0008097      20.164284      78.383017    
     43000   0.98899677     19.973068      78.170426    
     44000   0.97926104     19.82433       77.970022    
     45000   0.99789569     19.992107      77.728946    
     46000   1.0497535      19.610098      77.393235    
     47000   1.0103815      20.505817      77.287577    
     48000   1.0088257      19.701432      77.144073    
     49000   1.0314099      19.83609       76.916784    
     50000   0.99960497     20.092458      76.789437    
     51000   1.0396626      19.720346      76.430867    
     52000   1.0217149      20.249197      76.022323    
     53000   0.98772177     19.569231      75.591807    
     54000   1.0007566      19.934079      75.212086    
     55000   0.98057511     20.203483      74.819619    
     56000   0.9902082      20.419242      74.749874    
     57000   1.02892        19.833772      74.491696    
     58000   1.0221007      20.082148      74.363727    
     59000   1.0426445      19.657431      74.542342    
     60000   0.97277751     19.666106      74.246205    
     61000   0.97197076     19.866717      74.060087    
     62000   1.001119       20.187067      74.061873    
     63000   1.0226061      20.040364      73.809415    
     64000   0.97485947     20.175738      73.596622    
     65000   0.99151547     20.076223      73.643381    
     66000   1.0727135      20.165068      73.720584    
     67000   0.98882809     20.580112      73.546424    
     68000   1.0116335      20.222757      73.27424     
     69000   1.0037658      20.359762      72.860459    
     70000   0.99068558     20.386833      72.623745    
     71000   0.99112471     19.865214      72.22749     
     72000   0.97817122     20.298263      72.226526    
     73000   1.0433143      20.524517      72.068331    
     74000   0.9666373      19.792061      71.818247    
     75000   0.99250291     20.235671      71.650848    
     76000   1.0077907      19.903243      71.49719     
     77000   1.0030257      19.932353      71.291503    
     78000   0.9762777      19.607657      71.114985    
     79000   1.0041486      19.949217      71.057328    
     80000   0.98457168     20.027709      70.908145    
     81000   1.0186559      19.681251      70.586516    
     82000   1.0051593      20.510942      70.292165    
     83000   0.99091349     20.294227      70.170175    
     84000   0.94907162     20.267188      69.974927    
     85000   0.94407461     20.269909      69.90535     
     86000   1.0088851      20.392919      69.819336    
     87000   1.0516848      20.014124      69.522331    
     88000   0.97504436     20.50598       69.455226    
     89000   1.0424101      19.911555      69.356504    
     90000   1.0149137      20.26512       69.345024    
     91000   1.0590219      20.876231      69.420835    
     92000   0.93374962     19.892359      69.495       
     93000   1.0109183      20.085884      69.164004    
     94000   0.99506353     20.287221      68.869877    
     95000   0.9808402      20.452028      68.724281    
     96000   0.96283212     20.279985      68.532267    
     97000   1.0064285      20.36023       68.543895    
     98000   0.99939061     19.984349      68.402368    
     99000   0.98818059     20.341477      68.315355    
    100000   1.0023065      20.343354      68.508007    
Loop time of 331.71 on 2 procs for 100000 steps with 901 atoms

Performance: 260468.419 tau/day, 301.468 timesteps/s
104.0% CPU use with 1 MPI tasks x 2 OpenMP threads

MPI task timing breakdown:
Section |  min time  |  avg time  |  max time  |%varavg| %total
---------------------------------------------------------------
Pair    | 1.5368     | 1.5368     | 1.5368     |   0.0 |  0.46
Bond    | 2.8629     | 2.8629     | 2.8629     |   0.0 |  0.86
Neigh   | 320.3      | 320.3      | 320.3      |   0.0 | 96.56
Comm    | 0.040943   | 0.040943   | 0.040943   |   0.0 |  0.01
Output  | 0.3957     | 0.3957     | 0.3957     |   0.0 |  0.12
Modify  | 6.161      | 6.161      | 6.161      |   0.0 |  1.86
Other   |            | 0.4107     |            |       |  0.12

Nlocal:            901 ave         901 max         901 min
Histogram: 1 0 0 0 0 0 0 0 0 0
Nghost:              0 ave           0 max           0 min
Histogram: 1 0 0 0 0 0 0 0 0 0
Neighs:           5658 ave        5658 max        5658 min
Histogram: 1 0 0 0 0 0 0 0 0 0

Total # of neighbors = 5658
Ave neighs/atom = 6.2796892
Ave special neighs/atom = 1.9977802
Neighbor list builds = 1124
Dangerous builds = 0

# Replace lj potential, now collapse
pair_style      lj/cut 3

# Cutoff simul when gyration under 7
# Variable created with equal requires v_ + 'name'
fix 3 all halt 1000 v_rog < 7

run 3000000
Generated 0 of 0 mixed pair_coeff terms from geometric mixing rule
Last active /omp style is angle_style cosine/omp
Per MPI rank memory allocation (min/avg/max) = 1863 | 1863 | 1863 Mbytes
   Step          Temp         Enthalpy         c_1      
    100000   1.0023065      19.700954      68.508007    
    101000   0.99965527     19.708765      68.093352    
    102000   1.001508       19.534811      67.750075    
    103000   0.97550444     19.565269      67.435022    
    104000   1.0146718      19.293381      67.159168    
    105000   1.0041767      19.516285      66.565852    
    106000   1.0277278      19.503353      66.149276    
    107000   0.98503576     19.392312      66.072152    
    108000   1.0064962      19.665761      65.67867     
    109000   1.0121324      19.067334      65.597533    
    110000   1.0267209      19.859251      65.449497    
    111000   1.0049703      19.526684      65.196566    
    112000   0.9730495      19.559364      65.059372    
    113000   1.0499593      19.483077      64.885154    
    114000   1.0346959      19.374627      64.707259    
    115000   0.99292321     19.572456      64.560117    
    116000   0.97703434     19.629972      64.489821    
    117000   0.96693364     19.267754      64.396897    
    118000   1.0035159      19.422162      64.370966    
    119000   1.0033213      19.646965      64.355603    
    120000   1.0309023      20.099871      64.041204    
    121000   0.99163854     19.153681      63.731986    
    122000   1.0307718      20.319645      63.543286    
    123000   1.0261806      19.399211      63.201992    
    124000   0.98977149     19.486339      63.249522    
    125000   1.0042196      19.17093       62.994217    
    126000   1.0343571      19.78035       62.702711    
    127000   0.99138545     19.15534       62.44495     
    128000   1.0040207      19.739502      62.183619    
    129000   1.0143875      18.808418      62.147906    
    130000   1.0035637      19.440477      61.923686    
    131000   0.94332558     18.688823      61.529602    
    132000   1.0101352      19.413923      61.415899    
    133000   1.0009385      19.689376      61.399204    
    134000   1.0378684      19.569904      61.422285    
    135000   1.0107887      19.369925      61.276255    
    136000   1.0206321      19.382848      60.903346    
    137000   1.023692       19.417519      60.728409    
    138000   1.0189238      18.423948      60.481883    
    139000   0.95981605     18.893658      60.200983    
    140000   0.99110933     19.05388       60.13731     
    141000   1.0278578      19.439944      59.798124    
    142000   0.99680429     18.840235      59.370311    
    143000   1.012631       19.223801      59.158464    
    144000   1.0053478      19.225146      58.818537    
    145000   1.0044741      19.308683      58.440375    
    146000   0.98177336     18.935066      58.181783    
    147000   1.0013444      19.173127      58.229473    
    148000   1.014791       19.456325      58.234001    
    149000   1.0115949      19.113373      58.268713    
    150000   0.98374331     18.802473      58.035022    
    151000   0.97975925     19.415487      57.479141    
    152000   1.0041014      19.188967      57.33276     
    153000   0.96967307     18.913714      57.380304    
    154000   0.97056674     19.069379      57.208789    
    155000   0.97933782     19.054424      56.833777    
    156000   1.0140884      18.873852      56.835095    
    157000   1.0041507      19.258988      56.607322    
    158000   0.9621798      18.863591      56.392762    
    159000   0.99531016     19.015115      56.170669    
    160000   0.96484568     18.707556      56.010034    
    161000   1.0329578      19.131124      56.077082    
    162000   1.038969       19.073155      55.886017    
    163000   0.95122087     19.311836      55.826074    
    164000   1.0189839      19.134062      55.60823     
    165000   1.0280798      19.06512       55.347378    
    166000   1.0122998      18.842041      55.224327    
    167000   1.0232194      18.85994       55.063591    
    168000   1.0478485      19.024835      54.780926    
    169000   0.98123214     18.418195      54.610942    
    170000   1.021815       18.630531      54.349966    
    171000   0.95185022     18.547874      54.331987    
    172000   1.0252583      18.966025      54.20657     
    173000   1.0238481      19.285657      54.179225    
    174000   0.99924234     18.223517      53.777925    
    175000   0.98975134     19.006669      53.510509    
    176000   1.030548       18.553984      53.188508    
    177000   1.0378143      18.551696      53.234444    
    178000   0.9527066      19.393254      52.739134    
    179000   1.0205669      18.503763      52.574752    
    180000   1.0226416      18.66377       52.414837    
    181000   0.94874262     19.085351      52.360415    
    182000   0.97696558     19.037795      52.064024    
    183000   0.99426525     18.673809      51.799356    
    184000   1.012818       18.812382      51.750551    
    185000   0.96165654     18.851347      51.441294    
    186000   0.99265564     19.183187      51.304897    
    187000   1.0255512      19.169578      51.447805    
    188000   1.0201565      18.985083      51.383662    
    189000   1.0344719      19.203529      51.521545    
    190000   0.94397986     18.699019      51.255916    
    191000   0.99815884     18.220551      50.855568    
    192000   0.93942722     19.270591      50.62029     
    193000   0.98130969     18.807526      50.464829    
    194000   1.0057242      18.909935      50.154855    
    195000   1.0035432      18.581356      49.868236    
    196000   1.0290333      18.999109      49.752104    
    197000   1.0184483      18.716996      49.345139    
    198000   1.0660425      19.174544      49.182299    
    199000   1.017018       18.075188      49.020763    
    200000   1.0109413      18.488986      49.048991    
    201000   1.0230784      18.966679      49.063329    
    202000   0.9900232      19.25859       49.065944    
    203000   1.0368839      18.82725       48.766593    
    204000   1.0371204      18.955495      48.555591    
    205000   1.0028955      19.33722       48.652877    
    206000   1.0014131      19.621731      48.387515    
    207000   0.98599812     18.068802      48.172897    
    208000   0.99155057     18.834213      48.073227    
    209000   0.96561688     18.655175      47.725847    
    210000   1.0141299      18.35416       47.924906    
    211000   0.9878094      18.691282      47.693949    
    212000   0.98669346     19.091151      47.639848    
    213000   1.0450241      19.092119      47.430785    
    214000   1.0115872      19.128185      47.357879    
    215000   0.98187082     18.549634      47.053233    
    216000   1.0052474      18.852084      46.873964    
    217000   0.99337124     18.710326      46.688771    
    218000   1.0021995      18.378585      46.599923    
    219000   1.0305295      18.604848      46.4651      
    220000   0.95219402     18.744579      46.043225    
    221000   1.0080942      18.886615      45.939738    
    222000   1.0013217      18.267378      45.699575    
    223000   0.97456959     18.109009      45.120544    
    224000   0.99295895     18.680659      45.015079    
    225000   1.0061703      18.502532      45.053811    
    226000   1.0064189      18.487648      44.812327    
    227000   1.0114231      18.862333      44.387928    
    228000   1.0398907      18.503012      44.179706    
    229000   1.0426294      19.11255       44.002222    
    230000   1.0039095      18.073349      43.774441    
    231000   1.0040052      18.364247      43.684847    
    232000   0.98791472     18.444752      43.744372    
    233000   0.98892958     18.699868      43.560189    
    234000   0.99150086     17.865372      43.237404    
    235000   0.94344969     18.719256      42.775041    
    236000   0.97299466     18.419858      42.370658    
    237000   0.99063966     18.173072      42.204689    
    238000   0.99141592     18.753707      41.925489    
    239000   1.0506305      19.155213      41.610793    
    240000   0.94944118     18.804127      41.434944    
    241000   0.98200059     17.879862      41.332688    
    242000   1.0284992      19.242913      41.171843    
    243000   1.0481908      18.561728      40.856822    
    244000   0.9782072      18.478789      40.50896     
    245000   0.98612053     18.26033       40.378479    
    246000   0.96741819     18.262418      40.054014    
    247000   1.0122443      18.462526      39.966187    
    248000   1.0087807      18.397258      39.759748    
    249000   0.94034058     18.571904      39.646499    
    250000   1.0194814      18.370452      39.740016    
    251000   1.0081122      18.080927      39.565232    
    252000   0.98532174     18.216247      39.469231    
    253000   0.99996448     18.26414       39.127128    
    254000   0.99487696     18.829256      38.78606     
    255000   1.0269182      18.73545       38.766202    
    256000   1.0150025      17.887162      38.466994    
    257000   1.0002142      18.441708      38.210622    
    258000   1.0379971      18.310927      38.328258    
    259000   1.002534       18.132223      38.089825    
    260000   0.99012372     18.518336      38.058762    
    261000   0.96565335     18.435611      38.128421    
    262000   0.97198263     18.334446      37.924644    
    263000   1.0079392      18.6067        37.829297    
    264000   1.0005833      18.878189      37.832871    
    265000   0.97781744     18.22974       38.041973    
    266000   0.9677215      18.408089      37.794964    
    267000   0.9885361      18.088429      37.350917    
    268000   1.0005958      18.258765      37.217647    
    269000   0.96652117     19.059285      37.263061    
    270000   1.0004435      18.231717      37.159753    
    271000   1.0156059      18.812003      37.140387    
    272000   1.0243282      17.959987      36.903868    
    273000   0.99127862     18.246516      36.608055    
    274000   1.0500412      18.986157      36.490323    
    275000   0.94526496     18.570044      36.29306     
    276000   1.0099667      18.124112      36.20232     
    277000   0.98857858     18.037924      36.11077     
    278000   1.0435809      19.192637      35.832891    
    279000   1.0371155      18.236549      35.665647    
    280000   0.96823917     18.252937      35.708879    
    281000   0.99816696     18.806772      35.680785    
    282000   1.0059267      17.903924      35.575111    
    283000   0.98936738     18.852574      35.0681      
    284000   1.0363275      18.942701      35.036643    
    285000   1.0041897      18.395376      34.686513    
    286000   1.0215332      18.403625      34.442721    
    287000   0.97757549     18.00487       34.102298    
    288000   1.0136828      18.34166       34.042059    
    289000   0.97243945     18.344365      33.742513    
    290000   0.97140416     17.636611      33.694931    
    291000   1.0147092      18.536586      33.376737    
    292000   0.97517516     18.366357      33.251108    
    293000   1.0066203      18.209092      33.152781    
    294000   0.97459022     18.250627      33.100821    
    295000   1.009786       18.359568      32.951536    
    296000   1.0018214      18.027722      32.899795    
    297000   1.0412897      18.558938      32.797134    
    298000   0.99226515     17.872548      32.749582    
    299000   0.95577297     17.338845      32.478602    
    300000   1.0007609      18.48452       32.453606    
    301000   0.99014445     18.577125      32.033465    
    302000   0.99851087     18.289352      31.743171    
    303000   0.97817831     18.629323      31.547041    
    304000   1.0021122      17.964264      31.23762     
    305000   0.97911741     17.452308      31.000383    
    306000   0.96654823     18.546378      30.726987    
    307000   1.0250642      18.045414      30.330968    
    308000   0.95775037     17.406711      30.219336    
    309000   0.96323765     18.058959      30.011596    
    310000   1.0552245      18.411958      29.715157    
    311000   0.98626671     17.722072      29.386067    
    312000   0.97827796     19.086086      29.124177    
    313000   1.0238072      18.166922      28.830015    
    314000   0.96534622     18.319549      28.659539    
    315000   1.0158872      18.527383      28.346751    
    316000   0.98663278     18.1444        28.175586    
    317000   1.0174662      17.955203      28.092711    
    318000   0.993261       17.521764      27.956256    
    319000   1.0350602      17.849189      27.908661    
    320000   0.99011046     17.861594      27.827214    
    321000   0.9909072      18.090143      27.76087     
    322000   1.0199225      18.130741      27.577114    
    323000   0.95613746     18.087741      27.367629    
    324000   1.0250262      18.426824      27.272307    
    325000   0.97560946     18.055451      26.852568    
    326000   0.98141        18.03762       26.535986    
    327000   0.99485446     17.605699      26.175322    
    328000   1.0268576      17.917198      25.999232    
    329000   0.98382399     17.861164      25.905378    
    330000   1.0468242      17.972926      25.603839    
    331000   0.9968801      17.998407      25.461238    
    332000   1.0423712      18.15214       25.110379    
    333000   1.0349475      17.902369      25.064476    
    334000   1.0002059      18.140975      25.088393    
    335000   1.0007718      18.721544      25.099743    
    336000   0.98636352     18.100068      24.889177    
    337000   1.0225673      18.253311      24.702451    
    338000   0.9693292      17.826436      24.605141    
    339000   0.98530913     17.508523      24.567976    
    340000   1.0261674      17.667931      24.094496    
    341000   0.97024447     17.548255      23.696014    
    342000   1.0020974      17.615269      23.29656     
    343000   0.97547821     17.828044      23.112237    
    344000   1.0558713      18.386997      22.686227    
    345000   0.97299851     17.98192       22.361413    
    346000   0.95626993     17.831494      22.04437     
    347000   1.0167375      18.538289      21.87938     
    348000   1.0345825      17.961959      21.643063    
    349000   1.0169994      17.484952      21.437067    
    350000   1.000076       17.599211      21.375767    
    351000   1.0129824      18.243992      21.245971    
    352000   0.97850737     17.47929       21.239977    
    353000   1.0077427      17.895461      21.032377    
    354000   1.0225783      17.915087      20.965195    
    355000   0.9944894      17.96707       20.854763    
    356000   0.99867322     18.208205      20.683996    
    357000   0.9880273      17.660859      20.430585    
    358000   0.97284081     17.510616      20.409655    
    359000   1.0190324      18.516623      20.517765    
    360000   1.011842       17.947478      20.282033    
    361000   0.93808867     17.905887      20.080338    
    362000   1.0609673      18.340461      20.009293    
    363000   1.0182232      18.329859      19.711204    
    364000   1.0272631      17.183566      19.521748    
    365000   0.99347459     17.647405      19.222656    
    366000   1.0020352      17.682924      19.075447    
    367000   1.0100955      17.788903      19.073119    
    368000   0.97772057     18.244778      18.721346    
    369000   0.9907432      17.425892      18.498918    
    370000   1.060439       18.592551      18.451408    
    371000   0.97977476     17.796194      18.163173    
    372000   0.97284572     17.652416      17.922836    
    373000   0.99942034     18.183212      17.732112    
    374000   1.0032625      18.332498      17.657976    
    375000   1.0221213      17.807563      17.536331    
    376000   1.0330522      17.933164      17.575058    
    377000   1.0318152      17.77157       17.450112    
    378000   0.98959981     18.053665      17.505317    
    379000   0.97583393     17.701265      17.262677    
    380000   1.0156823      18.023916      16.946152    
    381000   1.0022097      18.056994      16.881533    
    382000   1.0407611      18.14832       16.790063    
    383000   0.96964584     18.236072      16.439242    
    384000   0.97567807     17.269943      16.18643     
    385000   1.0156005      17.83662       15.887114    
    386000   1.0302866      18.170224      15.989794    
    387000   1.0088122      17.693822      16.030827    
    388000   1.0222783      17.873994      15.783056    
    389000   0.99525825     17.369173      15.45743     
    390000   0.94505937     17.52712       15.464821    
    391000   0.99562569     17.909216      15.246893    
    392000   1.0438458      18.568055      15.228539    
    393000   0.97133256     17.856593      15.228884    
    394000   0.99996407     17.453307      14.794597    
    395000   1.0883851      18.54403       14.589158    
    396000   1.0474939      18.027483      14.484735    
    397000   1.0186103      18.273184      14.583827    
    398000   1.0194114      18.352388      14.483466    
    399000   0.96958195     18.261596      14.234206    
    400000   1.0359209      17.496785      14.204656    
    401000   1.0536717      17.670696      14.020759    
    402000   0.98729568     17.405346      13.77501     
    403000   1.0000484      18.175398      13.731105    
    404000   1.0610306      17.88042       13.608175    
    405000   1.00779        17.915064      13.405467    
    406000   1.0288466      18.150431      13.319147    
    407000   1.0397069      17.700152      13.112042    
    408000   0.9810813      17.928848      13.074691    
    409000   0.98954222     17.742862      12.918406    
    410000   1.0208984      17.261387      12.802557    
    411000   1.0362497      18.521087      12.693556    
    412000   1.0368039      17.985556      12.774553    
    413000   0.9841708      17.85243       12.82307     
    414000   1.0044079      17.704363      12.653715    
    415000   1.0429419      17.863371      12.581985    
    416000   1.0237298      17.921642      12.436378    
    417000   1.0103188      16.943969      12.269866    
    418000   1.0122434      17.609983      12.159591    
    419000   0.96989509     17.807457      11.872245    
    420000   0.97934799     17.194535      11.798209    
    421000   1.0425597      18.095918      11.642778    
    422000   0.9959376      17.654704      11.342254    
    423000   1.0208734      18.046569      11.213582    
    424000   0.98783655     18.089027      11.303501    
    425000   0.98142758     17.65539       11.101497    
    426000   0.99739298     17.513408      10.865701    
    427000   1.0240025      17.800178      10.550531    
    428000   0.99559454     17.587068      10.232959    
    429000   1.0408219      17.107827      9.9947839    
    430000   0.98397325     17.841679      9.796019     
    431000   0.9815885      18.470097      9.5112472    
    432000   1.0144033      17.469585      9.3679381    
    433000   1.0065952      17.219611      9.2139227    
    434000   1.0015457      17.590457      8.9050853    
    435000   0.97549273     17.842224      8.6625748    
    436000   0.97360109     17.421573      8.5282163    
    437000   0.97860542     17.749705      8.5363588    
    438000   1.0465314      17.602297      8.4460637    
    439000   0.96077942     17.220605      8.3449943    
    440000   0.98902803     17.078018      8.1446987    
    441000   1.0157995      17.843775      7.9567801    
    442000   1.0528705      17.445062      7.6824356    
    443000   1.0405266      17.783092      7.6081964    
    444000   0.99364043     17.344731      7.6016398    
    445000   1.0199911      17.479319      7.3534809    
    446000   1.0125915      17.395816      7.1665082    
Fix halt condition for fix-id 3 met on step 447000 with value 6.835470826267374 (src/fix_halt.cpp:237)
    447000   0.98562244     17.423398      6.8354708    
Loop time of 476.757 on 2 procs for 347000 steps with 901 atoms

Performance: 628848.679 tau/day, 727.834 timesteps/s
123.4% CPU use with 1 MPI tasks x 2 OpenMP threads

MPI task timing breakdown:
Section |  min time  |  avg time  |  max time  |%varavg| %total
---------------------------------------------------------------
Pair    | 73.589     | 73.589     | 73.589     |   0.0 | 15.44
Bond    | 9.5933     | 9.5933     | 9.5933     |   0.0 |  2.01
Neigh   | 370.34     | 370.34     | 370.34     |   0.0 | 77.68
Comm    | 0.14478    | 0.14478    | 0.14478    |   0.0 |  0.03
Output  | 1.2843     | 1.2843     | 1.2843     |   0.0 |  0.27
Modify  | 20.391     | 20.391     | 20.391     |   0.0 |  4.28
Other   |            | 1.415      |            |       |  0.30

Nlocal:            901 ave         901 max         901 min
Histogram: 1 0 0 0 0 0 0 0 0 0
Nghost:              0 ave           0 max           0 min
Histogram: 1 0 0 0 0 0 0 0 0 0
Neighs:         158979 ave      158979 max      158979 min
Histogram: 1 0 0 0 0 0 0 0 0 0

Total # of neighbors = 158979
Ave neighs/atom = 176.44728
Ave special neighs/atom = 1.9977802
Neighbor list builds = 3403
Dangerous builds = 0

# This simulation is done
# Move onto the next one
clear
  using 2 OpenMP thread(s) per MPI task
package omp 0
using multi-threaded neighbor list subroutines
next f
jump SELF

###
# Reference paper:
# K. Kremer and G. S. Grest
# Dynamics of entangled linear polymer melts: A molecular-dynamics simulation
# J Chem Phys 92, 5057 (1990)

##################################
# MIHIR: for branched polymers
# LJ minimum first to expand and explore, then collapse
###

###
# Looping through the various N1B5 polymers to simulate,
# define variables to switch through
variable f index bb40nuc1bl20bn5d30tot100V2 bb80nuc1bl40bn5d30tot200V2 bb120nuc1bl60bn5d30tot300V2 bb160nuc1bl80bn5d30tot400V2 bb200nuc1bl100bn5d30tot500V2 bb240nuc1bl120bn5d30tot600V2 bb280nuc1bl140bn5d30tot700V2 bb320nuc1bl160bn5d30tot800V2 bb360nuc1bl180bn5d30tot900V2 bb400nuc1bl200bn5d30tot1000V2 bb440nuc1bl220bn5d30tot1100V2 bb480nuc1bl240bn5d30tot1200V2
#variable f index bb40nuc1bl20bn5d30tot100 bb80nuc1bl40bn5d30tot200 bb120nuc1bl60bn5d30tot300 bb160nuc1bl80bn5d30tot400 bb200nuc1bl100bn5d30tot500 bb240nuc1bl120bn5d30tot600 bb280nuc1bl140bn5d30tot700 bb320nuc1bl160bn5d30tot800 bb360nuc1bl180bn5d30tot900 bb400nuc1bl200bn5d30tot1000 bb440nuc1bl220bn5d30tot1100 bb480nuc1bl240bn5d30tot1200
# variable f index
###


###
# Box and units  (use LJ units and periodic boundaries)
###

units lj
log N1B5/trial2/logs/$f.log
log N1B5/trial2/logs/bb400nuc1bl200bn5d30tot1000V2.log
