#atom_style bond #no stiffness
atom_style angle #with stiffness

boundary        p p p
###
# Pair interactions require lists of neighbours to be calculated
###

#neighbor 0.3 bin
neighbor 4 bin

neigh_modify every 1 delay 1 check yes
atom_modify sort 0 0
### Generate RESTART file, SPECIAL format, not a .txt file ###
### Useful if simulation crashes ###

restart 1000000 N1B5/trial2/restarts3/$f.restart
restart 1000000 N1B5/trial2/restarts3/bb400nuc1bl200bn5d30tot1000V2.restart
#############################



### READ "start" data file ###

read_data N1B5/trial2/dats2/$f.dat
read_data N1B5/trial2/dats2/bb400nuc1bl200bn5d30tot1000V2.dat
Reading data file ...
  orthogonal box = (-1000 -1000 -1000) to (1000 1000 1000)
  1 by 1 by 1 MPI processor grid
  reading atoms ...
  1001 atoms
  scanning bonds ...
  4 = max bonds/atom
  scanning angles ...
  10 = max angles/atom
  reading bonds ...
  1000 bonds
  reading angles ...
  1005 angles
Finding 1-2 1-3 1-4 neighbors ...
  special bond factors lj:    0        0        0       
  special bond factors coul:  0        0        0       
     5 = max # of 1-2 neighbors
     5 = max # of 1-3 neighbors
    10 = max # of 1-4 neighbors
    15 = max # of special neighbors
  special bonds CPU = 0.003 seconds
  read_data CPU = 0.188 seconds

######################

### READ "REstart" data file ###

######################



###
# Define groups (atom type 1 is group 'all')
###
group all type 1
1001 atoms in group all


###
# Dump configs - "simple dumpings"
###

###
# Dump configs + box coords
###

dump   1   all   custom   1000  N1B5/trial2/trjs3/$f.lammpstrj  id  x y z  ix iy iz
dump   1   all   custom   1000  N1B5/trial2/trjs3/bb400nuc1bl200bn5d30tot1000V2.lammpstrj  id  x y z  ix iy iz
dump_modify   1   format line "%d %.5f %.5f %.5f %d %d %d"

########################################################################


###################################################################
# Stiffness term
#
# E = K * (1+cos(theta)), K>0
#
angle_style   cosine
#change this coefficient to change stiffness (e.g. 1,5,10)
angle_coeff   1 1.0
###################################################################

###################################################################
# Pair interaction between non-bonded atoms
#
#  Lennard-Jones 12-6 potential with cutoff:
#  potential E=4epsilon[ (sigma/r)^12 - (sigma/r)^6]  for r<r_cut
#
#  1.12246 = 2^(1/6) is the minimum of the potential


pair_style      lj/cut 1.12246152962189
#pair_style      lj/cut 3

#
#  pair_modify shift yes adds a constant to the potential such

#  that E(r_cut)=0. Forces remains unchanged.
#

pair_modify     shift yes

#
#  pair_coeff for lj/cut, specify 4:
#    * atom type interacting with
#    * atom type
#    * epsilon (energy units)
#    * sigma (distance units)
#

pair_coeff      1 1 1.0 1.0
###################################################################

###################################################################
# Pair interaction between non-bonded atoms
#
#  soft potential, for PUSHING apart overlapping atoms
#  potential E=A*(1 + cos(pi*r/r_c))
#
#  1.12246 = 2^(1/6) is the cut-off r_c

#pair_style     soft 1.12246152962189

#
#  pair_coeff for soft, specify 3:
#    * atom type interacting with
#    * atom type
#    * A
#
#

#pair_coeff      1 1 100.0
###################################################################

###################################################################
# Pair interaction between bonded atoms
#
# Fene potential + Lennard Jones 12-6:

#
#  E= - 0.5 K R0^2 ln[ 1- (r/R0)^2]
#     + 4epsilon[ (sigma/r)^12 - (sigma/r)^6] + epsilon
#

bond_style   fene


#
# For style fene, specify:
#   * bond type
#   * K (energy/distance^2)
#   * R0 (distance)
#   * epsilon (energy)  (LJ component)
#   * sigma (distance)  (LJ component)
#


special_bonds fene #<=== I M P O R T A N T (new command)
Finding 1-2 1-3 1-4 neighbors ...
  special bond factors lj:    0        1        1       
  special bond factors coul:  0        1        1       
     5 = max # of 1-2 neighbors
    15 = max # of special neighbors
  special bonds CPU = 0.001 seconds

bond_coeff   1   30   2   1.0   1.0


###################################################

###################################################################
# Pair interaction between bonded atoms
#
# Harmonic potential:
#
#  E= K * (R-R0)^2
#

#bond_style   harmonic

#
# For style harmonic, specify:
#   * bond type
#   * K (energy/distance^2)
#   * R0 (distance)
#

#bond_coeff   1   60.0   1.0
#bond_coeff   2   harmonic 0.1   1.0

###################################################
compute 1 all gyration
variable rog equal c_1
#compute 2 all coord/atom cutoff 1.1

#dump 2 all custom 10000 contact_number.dump id c_2


###
# Set up fixes
###
thermo_style   custom   step  temp enthalpy c_1
fix 1 all nve   ###NVE ensemble

fix 2 all   langevin   1.0 1.0 1.0  778655   ###Langevin integrator Tstart Tstop 1/friction rndseed


##### Sample thermodynamic info  (temperature, energy, pressure, etc.) #####
thermo 1000









############################################################################

###
# set timestep of integrator

timestep 0.01

###
# run integration for a number of steps
###
#run 0
#variable r equal c_1
#if "$r < 63.1" then "quit 1"

# lj potential minimum, cause molecule to explore
run 100000
Generated 0 of 0 mixed pair_coeff terms from geometric mixing rule
Last active /omp style is angle_style cosine/omp
Neighbor list info ...
  update: every = 1 steps, delay = 1 steps, check = yes
  max neighbors/atom: 2000, page size: 100000
  master list distance cutoff = 5.1224615
  ghost atom cutoff = 5.1224615
  binsize = 2.5612308, bins = 781 781 781
  1 neighbor lists, perpetual/occasional/extra = 1 0 0
  (1) pair lj/cut/omp, perpetual
      attributes: half, newton on, omp
      pair build: half/bin/newton/omp
      stencil: half/bin/3d
      bin: standard
WARNING: Communication cutoff 5.12246152962189 is shorter than a bond length based estimate of 5.455. This may lead to errors. (src/comm.cpp:723)
Per MPI rank memory allocation (min/avg/max) = 1863 | 1863 | 1863 Mbytes
   Step          Temp         Enthalpy         c_1      
         0   0              13.24958       105.50575    
      1000   0.99004767     17.675126      104.96543    
      2000   0.9802368      18.366204      104.22079    
      3000   1.0460506      18.402831      103.6337     
      4000   0.99374684     18.656086      102.97807    
      5000   1.0143151      18.461328      102.34979    
      6000   1.0367777      18.96965       101.70045    
      7000   1.0475097      18.707036      101.1918     
      8000   1.012497       19.073357      100.53694    
      9000   0.99042513     18.592725      99.966056    
     10000   0.99796445     18.503862      99.373974    
     11000   0.97577018     19.0174        98.992543    
     12000   0.98999336     18.79185       98.396966    
     13000   0.99378562     19.101715      98.034507    
     14000   0.97286597     19.130574      97.740111    
     15000   0.94412551     19.524958      97.157383    
     16000   1.0053935      18.933139      96.594235    
     17000   1.003388       18.917785      96.138607    
     18000   0.97807301     18.99276       95.87878     
     19000   1.005921       19.36262       95.500741    
     20000   0.98851473     18.914653      95.289391    
     21000   1.0005243      19.883882      94.866814    
     22000   1.0330863      19.613381      94.535025    
     23000   0.99439942     19.686621      94.125746    
     24000   1.0096426      19.536342      93.986416    
     25000   0.99476841     19.273237      93.844077    
     26000   0.9714918      19.702958      93.541527    
     27000   0.99167154     19.062794      93.101482    
     28000   0.9991605      19.279364      92.8593      
     29000   1.0205209      19.949276      92.421378    
     30000   1.0392704      19.594608      92.273278    
     31000   0.98391993     19.678487      92.131425    
     32000   1.0319976      20.298926      91.901503    
     33000   0.97723229     19.269342      91.850399    
     34000   1.0518538      19.628912      91.417039    
     35000   0.99976402     19.452329      91.292766    
     36000   0.98127863     19.580856      90.968416    
     37000   1.0023586      19.718028      90.823401    
     38000   0.97731757     19.489301      90.712944    
     39000   1.0355502      20.117964      90.46678     
     40000   0.95791288     20.019362      90.272833    
     41000   1.0198533      19.610938      90.20422     
     42000   0.96841277     19.568812      89.926116    
     43000   0.99926554     19.893443      89.597219    
     44000   0.98944283     19.496145      89.504408    
     45000   0.9890161      19.866656      89.15176     
     46000   1.0104074      20.040613      88.915184    
     47000   1.0331121      20.21434       88.686644    
     48000   1.0195894      20.119438      88.356556    
     49000   0.99764169     19.898034      88.237512    
     50000   1.0192194      20.077214      88.131527    
     51000   1.0435158      20.267885      88.069304    
     52000   1.0264491      20.075426      87.750865    
     53000   1.0191386      19.436151      87.599334    
     54000   1.0048269      19.654329      87.501471    
     55000   0.96464393     19.888234      87.330198    
     56000   0.97389647     19.362124      87.066523    
     57000   0.99635756     19.918432      86.869301    
     58000   1.0174401      19.620977      86.978474    
     59000   1.0003123      19.667521      86.777158    
     60000   0.94981553     19.852375      86.465295    
     61000   1.0102329      19.908383      86.126191    
     62000   1.0082972      20.248306      85.740078    
     63000   0.99647123     19.702547      85.458782    
     64000   0.99779231     19.745173      85.227887    
     65000   0.9961021      19.83101       84.991142    
     66000   1.0362111      20.532827      84.846757    
     67000   1.0296548      19.927538      84.605526    
     68000   0.99976509     20.024231      84.371729    
     69000   1.0101507      20.229584      84.112734    
     70000   0.95085735     20.067812      84.023121    
     71000   0.9917601      20.098097      83.863459    
     72000   1.0169163      20.073192      83.762893    
     73000   0.95967355     19.796021      83.483795    
     74000   0.99562823     20.315051      83.394694    
     75000   1.0335362      20.677333      83.053113    
     76000   0.99724983     19.743561      82.921147    
     77000   1.0306622      19.806796      82.779797    
     78000   0.96727869     20.293311      82.643117    
     79000   0.97677453     19.824432      82.476931    
     80000   1.0149245      20.016316      82.304729    
     81000   1.0087178      20.210399      81.816452    
     82000   0.9973079      20.203885      81.664216    
     83000   1.0062289      20.104887      81.739987    
     84000   1.0245138      20.513227      81.670838    
     85000   1.0248874      20.096077      81.581843    
     86000   0.97785395     20.510297      81.344946    
     87000   1.0137287      20.193151      81.341535    
     88000   0.9852654      20.061279      81.248386    
     89000   1.0148533      20.581845      81.078816    
     90000   0.98943131     20.750108      81.054093    
     91000   1.0228633      20.062792      81.010019    
     92000   1.0157142      19.904393      80.553629    
     93000   1.0388536      19.932456      80.302889    
     94000   0.98854278     20.185936      80.105518    
     95000   0.99167055     20.19058       79.916531    
     96000   1.0025592      19.848619      79.817345    
     97000   0.97940254     19.858422      79.849122    
     98000   1.0233332      20.691268      79.74573     
     99000   0.97052279     19.609713      79.542097    
    100000   1.0223766      20.223179      79.301932    
Loop time of 313.036 on 2 procs for 100000 steps with 1001 atoms

Performance: 276006.645 tau/day, 319.452 timesteps/s
95.3% CPU use with 1 MPI tasks x 2 OpenMP threads

MPI task timing breakdown:
Section |  min time  |  avg time  |  max time  |%varavg| %total
---------------------------------------------------------------
Pair    | 1.1126     | 1.1126     | 1.1126     |   0.0 |  0.36
Bond    | 2.2059     | 2.2059     | 2.2059     |   0.0 |  0.70
Neigh   | 304.13     | 304.13     | 304.13     |   0.0 | 97.16
Comm    | 0.030767   | 0.030767   | 0.030767   |   0.0 |  0.01
Output  | 0.31828    | 0.31828    | 0.31828    |   0.0 |  0.10
Modify  | 4.9203     | 4.9203     | 4.9203     |   0.0 |  1.57
Other   |            | 0.3168     |            |       |  0.10

Nlocal:           1001 ave        1001 max        1001 min
Histogram: 1 0 0 0 0 0 0 0 0 0
Nghost:              0 ave           0 max           0 min
Histogram: 1 0 0 0 0 0 0 0 0 0
Neighs:           5827 ave        5827 max        5827 min
Histogram: 1 0 0 0 0 0 0 0 0 0

Total # of neighbors = 5827
Ave neighs/atom = 5.8211788
Ave special neighs/atom = 1.998002
Neighbor list builds = 1132
Dangerous builds = 0

# Replace lj potential, now collapse
pair_style      lj/cut 3

# Cutoff simul when gyration under 7
# Variable created with equal requires v_ + 'name'
fix 3 all halt 1000 v_rog < 7

run 3000000
Generated 0 of 0 mixed pair_coeff terms from geometric mixing rule
Last active /omp style is angle_style cosine/omp
Per MPI rank memory allocation (min/avg/max) = 1863 | 1863 | 1863 Mbytes
   Step          Temp         Enthalpy         c_1      
    100000   1.0223766      19.609272      79.301932    
    101000   1.0174909      19.533426      79.289072    
    102000   1.0324087      19.654283      79.058026    
    103000   0.99919019     19.454876      78.774807    
    104000   1.0307574      19.416462      78.444478    
    105000   1.0089272      19.494897      78.329106    
    106000   1.0007312      19.655606      78.239757    
    107000   0.99186378     19.333094      77.858334    
    108000   1.0098996      19.704775      77.582897    
    109000   0.96822498     19.682753      77.243119    
    110000   1.0187947      19.646636      76.949274    
    111000   0.96571343     19.361726      76.634467    
    112000   0.98961026     20.293289      76.413347    
    113000   1.0041306      19.166551      76.417642    
    114000   1.0022702      19.70645       76.287038    
    115000   1.0123288      19.077065      76.329654    
    116000   1.0156519      19.721936      76.239346    
    117000   0.95542714     19.176843      76.161783    
    118000   0.9492017      19.141094      75.942346    
    119000   1.0086148      19.278153      75.745175    
    120000   0.97756942     19.439645      75.527434    
    121000   0.95846659     19.320214      75.241221    
    122000   1.0354496      19.566787      75.035314    
    123000   1.0003714      19.093584      74.989229    
    124000   1.0196245      19.724294      74.799753    
    125000   0.95617077     18.851432      74.618427    
    126000   1.0050973      19.525459      74.696502    
    127000   1.0292027      19.000737      74.476469    
    128000   1.0111647      19.941862      73.967075    
    129000   1.0580796      19.624374      73.495643    
    130000   1.0210214      19.384368      73.338824    
    131000   0.98253869     19.382996      73.318223    
    132000   1.0260245      19.367623      73.139911    
    133000   1.0101978      19.599644      72.954014    
    134000   1.0272087      19.43253       72.86592     
    135000   1.014243       19.207131      72.881406    
    136000   1.012962       19.630616      72.712776    
    137000   0.97061213     19.239363      72.680922    
    138000   1.0056518      19.136951      72.410335    
    139000   0.99479139     19.43496       72.243564    
    140000   1.0066561      19.144453      72.195457    
    141000   0.99349479     19.195601      71.912318    
    142000   1.0054348      18.887918      71.765759    
    143000   0.97941058     18.862657      71.796874    
    144000   1.009453       19.462656      71.402407    
    145000   1.0149532      19.002853      71.111551    
    146000   0.96388551     18.9952        70.755372    
    147000   1.0010793      19.497682      70.571708    
    148000   0.98922457     18.732008      70.440173    
    149000   1.0090493      19.315488      70.241848    
    150000   0.98340377     19.653538      70.114976    
    151000   0.96858049     19.46842       70.129872    
    152000   0.99617759     18.893978      69.728219    
    153000   1.0269921      19.118064      69.546476    
    154000   0.96417211     18.945007      69.323979    
    155000   1.0259576      19.064054      69.155591    
    156000   1.0155627      19.137874      68.919672    
    157000   0.98699076     19.355981      68.707189    
    158000   0.99122284     19.206721      68.584563    
    159000   0.99393864     19.410801      68.40559     
    160000   0.99456626     19.387243      68.356914    
    161000   1.0284314      18.820158      68.227682    
    162000   0.98395368     19.161963      68.036086    
    163000   0.96638011     18.940546      67.862293    
    164000   0.98695533     19.328311      67.479889    
    165000   0.93678993     18.86021       67.248682    
    166000   0.99909117     19.275718      67.069043    
    167000   1.0228734      19.147523      66.814061    
    168000   1.0161212      18.70956       66.466813    
    169000   1.0029734      18.726915      66.131936    
    170000   0.99594957     19.30466       65.728616    
    171000   0.98544895     19.004853      65.758068    
    172000   0.99561738     19.072971      65.527992    
    173000   1.0283537      19.110316      65.076205    
    174000   1.0064982      18.614481      64.925436    
    175000   0.96767574     19.034779      65.030322    
    176000   1.0134254      18.876824      64.896261    
    177000   0.99844619     19.233405      64.748635    
    178000   1.0011765      19.062025      64.646449    
    179000   1.0213895      19.271455      64.423473    
    180000   1.0054819      19.076149      64.157137    
    181000   1.0186285      18.501696      63.857026    
    182000   0.97242513     19.052032      63.708293    
    183000   0.98022536     19.128657      63.715362    
    184000   1.0196945      19.176561      63.470618    
    185000   0.95877173     19.004331      63.309731    
    186000   0.98716369     18.917541      63.262362    
    187000   0.99220378     19.286883      63.206314    
    188000   1.0064954      18.856012      62.85848     
    189000   1.0038486      19.191843      62.432426    
    190000   0.9869297      18.916219      62.309459    
    191000   1.0373605      18.942803      61.94719     
    192000   0.99900391     19.355667      61.855464    
    193000   0.98751302     19.142688      61.605667    
    194000   1.0221243      19.187214      61.261899    
    195000   0.99376945     19.321877      60.959909    
    196000   0.96017448     18.949607      60.904015    
    197000   1.0245203      18.564886      60.760141    
    198000   0.98879495     18.803227      60.692694    
    199000   0.9966161      18.984511      60.45027     
    200000   1.0187695      18.423454      60.232511    
    201000   0.96823263     19.215569      60.098272    
    202000   0.9771382      18.759671      60.000606    
    203000   1.0023096      19.050313      59.637423    
    204000   0.96025054     19.07018       59.525969    
    205000   1.0270801      18.919015      59.468368    
    206000   1.0055119      19.052036      59.412848    
    207000   0.94640595     18.925662      59.463899    
    208000   0.99496594     18.623245      59.282358    
    209000   1.0301523      18.473467      59.056491    
    210000   0.98101381     18.743132      59.131824    
    211000   0.97543426     18.728925      58.969313    
    212000   1.0055555      19.331477      58.943543    
    213000   1.0348259      18.601505      58.980554    
    214000   0.99197831     19.129003      58.93375     
    215000   0.96923762     19.129588      58.502732    
    216000   0.97551962     18.564363      58.16895     
    217000   1.0068754      18.924286      58.366556    
    218000   0.99916375     19.250595      58.251353    
    219000   0.97008525     18.304538      58.082516    
    220000   1.0035569      19.379387      57.869296    
    221000   0.98354503     18.275838      57.838748    
    222000   0.95951601     18.928055      57.638787    
    223000   0.96520313     18.817803      57.398486    
    224000   1.0119356      19.042998      57.248631    
    225000   0.97618322     19.022688      57.054656    
    226000   1.0488429      18.973242      56.725267    
    227000   1.0044765      18.865656      56.481699    
    228000   0.98330364     18.407734      56.138489    
    229000   1.0208871      18.251245      55.999056    
    230000   1.0294686      18.445763      55.873474    
    231000   0.98258743     18.784722      55.830443    
    232000   1.0213751      18.254232      55.601859    
    233000   0.99449053     18.315605      55.473484    
    234000   1.0085083      18.85137       55.133227    
    235000   1.0091655      18.491607      54.906064    
    236000   1.0179741      18.792582      54.474735    
    237000   1.0189883      19.174068      54.124898    
    238000   0.99192649     18.754903      54.224304    
    239000   0.95081967     18.182358      54.079572    
    240000   1.0201432      18.797674      54.096466    
    241000   0.98811849     18.286042      53.933224    
    242000   1.0464147      18.465971      53.895191    
    243000   1.0065454      18.408253      53.789701    
    244000   1.0009274      18.579355      53.546675    
    245000   1.0334504      18.551301      53.437104    
    246000   0.97630189     18.678077      53.342158    
    247000   1.0295018      18.147859      53.004374    
    248000   1.002947       18.319928      52.72769     
    249000   1.0051944      18.588475      52.482913    
    250000   0.99504926     19.518685      52.228847    
    251000   1.030408       18.592542      52.129547    
    252000   0.98091279     18.699914      52.026769    
    253000   0.99942091     18.265662      51.687209    
    254000   0.96753407     18.299755      51.490093    
    255000   0.97464619     18.879572      51.355327    
    256000   1.0110039      18.763198      51.368878    
    257000   1.0108497      19.476993      51.107407    
    258000   0.98266622     18.246701      50.88272     
    259000   1.0210416      18.802061      50.932245    
    260000   1.0004345      19.325858      50.880703    
    261000   0.9400335      18.331648      50.780791    
    262000   0.98555002     18.411692      50.521659    
    263000   0.94764458     18.56036       50.489748    
    264000   0.99355078     18.710707      50.408792    
    265000   0.95988431     18.701762      50.350986    
    266000   1.016681       18.531534      50.114328    
    267000   0.99478178     19.145652      50.043453    
    268000   0.97885895     18.291488      49.757188    
    269000   1.0213885      18.345577      49.718292    
    270000   1.0164376      18.881253      49.52811     
    271000   0.97913108     18.365012      49.340257    
    272000   1.0114414      18.432225      49.10611     
    273000   0.99800403     18.849404      49.015572    
    274000   0.99107695     18.554138      48.84008     
    275000   0.95203083     18.810314      48.612585    
    276000   1.0226671      18.969218      48.429872    
    277000   1.0156314      18.423494      48.090304    
    278000   1.0007803      18.302961      47.760971    
    279000   1.0101209      18.439033      47.798456    
    280000   0.99184626     18.878443      47.849543    
    281000   0.99159595     18.80841       47.697371    
    282000   1.02234        18.711316      47.559611    
    283000   1.0031384      18.646919      47.365884    
    284000   0.95625383     18.270531      47.163458    
    285000   1.0311562      19.034559      47.124171    
    286000   1.0059908      18.900476      46.766899    
    287000   1.0166043      18.301185      46.612905    
    288000   1.0619311      18.694296      46.406401    
    289000   1.0040392      18.078418      46.241573    
    290000   0.99356075     18.303391      45.962679    
    291000   1.0814315      18.610877      45.910217    
    292000   1.0297355      18.566945      45.720296    
    293000   0.98932273     19.06914       45.493613    
    294000   1.0193838      18.897419      45.461187    
    295000   0.98549412     18.271116      45.084308    
    296000   0.95114906     18.179732      44.633513    
    297000   1.0160972      18.897072      44.432557    
    298000   0.99050592     18.487617      44.280812    
    299000   1.0478258      18.911912      44.112178    
    300000   1.0283516      18.692342      43.882839    
    301000   0.96421109     18.332296      43.718358    
    302000   1.0196266      18.908707      43.594888    
    303000   0.98163116     18.413488      43.474239    
    304000   1.0027182      18.821317      43.233164    
    305000   1.0498695      18.537299      42.97416     
    306000   1.011151       18.141007      42.967891    
    307000   1.0044281      18.642521      42.810136    
    308000   1.0412647      18.200062      42.592099    
    309000   1.0294843      18.170197      42.337341    
    310000   1.0321779      18.31705       42.129215    
    311000   1.0249401      18.913993      42.163517    
    312000   0.9839413      18.028026      42.15044     
    313000   0.98392454     18.99548       41.796524    
    314000   0.99201718     18.036725      41.68239     
    315000   1.0029588      18.338359      41.356195    
    316000   1.0024469      18.314705      41.258406    
    317000   1.0178212      18.372775      40.996346    
    318000   1.0144563      18.730706      41.108543    
    319000   1.0124438      18.424988      40.820713    
    320000   1.0212527      18.73673       40.722611    
    321000   0.9705377      18.795984      40.224009    
    322000   1.0010301      18.259635      40.111165    
    323000   1.0365072      18.446393      39.682708    
    324000   1.0052835      18.213061      39.483585    
    325000   1.0286095      17.970847      39.376818    
    326000   1.0195676      18.619926      39.171341    
    327000   0.94543327     18.387938      39.033098    
    328000   0.98525014     18.033575      38.808055    
    329000   1.0176613      17.908622      38.350484    
    330000   1.0109335      18.128193      38.210586    
    331000   1.010466       18.254988      38.192304    
    332000   1.0096182      18.909376      37.803435    
    333000   1.0541759      18.104298      37.666608    
    334000   0.99350388     18.01274       37.390195    
    335000   0.98765742     18.585061      37.227314    
    336000   0.9947556      18.429594      37.070668    
    337000   1.0489423      18.6961        37.047175    
    338000   0.99946568     18.596094      36.889916    
    339000   1.0259308      18.276367      36.716843    
    340000   1.0238378      17.955499      36.530837    
    341000   1.0182236      18.006068      36.559223    
    342000   1.0414303      18.449392      36.407918    
    343000   0.97499707     18.216157      36.304011    
    344000   0.99055276     17.396996      36.260076    
    345000   0.95984727     17.750393      36.046822    
    346000   1.0247011      18.146041      35.902832    
    347000   0.99889918     18.130944      35.627955    
    348000   1.0031446      17.969642      35.426897    
    349000   0.95338571     18.149831      35.162449    
    350000   0.99129005     18.722215      34.929701    
    351000   0.98019273     17.983388      34.70582     
    352000   1.0092981      18.154383      34.318953    
    353000   0.99652575     17.717701      34.245264    
    354000   1.0296576      17.89492       34.05654     
    355000   1.0331034      18.342521      33.888324    
    356000   0.99427427     18.368596      33.800348    
    357000   1.0514273      18.032525      33.696835    
    358000   0.99097023     17.89316       33.666243    
    359000   1.0147294      17.810911      33.330392    
    360000   0.96979985     18.165532      33.05232     
    361000   1.0354371      18.068207      33.039718    
    362000   1.0736038      18.526924      32.886916    
    363000   1.0318557      17.807479      32.717171    
    364000   1.0276057      18.415901      32.53408     
    365000   0.97926102     18.3166        32.608523    
    366000   0.96194025     17.812231      32.488346    
    367000   0.98384123     17.855058      32.062771    
    368000   0.98944527     17.971298      31.799019    
    369000   0.96999444     17.824238      31.802222    
    370000   0.98807592     18.054447      31.698427    
    371000   1.0405787      18.238798      31.340571    
    372000   1.0220156      18.212435      31.169998    
    373000   1.0013319      17.953158      31.246142    
    374000   1.0120781      18.109177      31.233415    
    375000   0.9904298      18.285702      31.352356    
    376000   1.017554       18.055625      31.461395    
    377000   1.0200002      18.086251      31.180474    
    378000   1.0103117      18.091844      31.06362     
    379000   1.0345815      18.45661       30.713495    
    380000   0.95689765     17.339667      30.485374    
    381000   1.0316336      18.424734      30.377775    
    382000   1.0437581      17.905524      30.25971     
    383000   0.95899681     18.307028      29.963891    
    384000   0.99233826     18.300412      29.658383    
    385000   0.9923374      17.831866      29.44718     
    386000   1.0150965      18.335502      29.260279    
    387000   0.99157661     18.086531      29.141359    
    388000   1.0334925      17.8414        29.105354    
    389000   1.0099997      18.051044      29.170611    
    390000   0.96824145     17.803366      29.296709    
    391000   0.99017238     18.088506      29.093763    
    392000   0.97636688     17.672086      28.843128    
    393000   1.0042608      18.11475       28.639573    
    394000   0.99175064     17.750562      28.698565    
    395000   1.0652072      17.885099      28.423732    
    396000   0.98939872     17.773941      28.146732    
    397000   1.0047899      17.65957       27.981545    
    398000   0.99902194     18.063795      27.984932    
    399000   0.97064383     17.836431      27.998509    
    400000   1.0192561      18.319272      27.854574    
    401000   1.0189853      17.78669       27.740263    
    402000   0.98469551     18.717202      27.747227    
    403000   0.97156435     17.020805      27.398913    
    404000   0.99867558     18.285482      27.333102    
    405000   1.030185       17.930311      27.018467    
    406000   1.0120704      17.586813      26.980074    
    407000   0.97155076     17.746527      26.793189    
    408000   1.0260634      18.233004      26.594799    
    409000   0.94579843     18.290353      26.471205    
    410000   1.0068716      18.505594      26.225133    
    411000   1.0093026      18.394157      25.998056    
    412000   1.0121554      18.218307      25.996798    
    413000   1.0724636      17.72566       25.758767    
    414000   0.96911069     17.788957      25.595906    
    415000   1.0363984      17.768963      25.350656    
    416000   0.97501137     17.829317      25.198931    
    417000   0.98592779     18.341026      24.997285    
    418000   1.0537387      18.202118      24.976224    
    419000   1.0188014      18.22087       24.8269      
    420000   1.0317707      17.776367      24.43194     
    421000   1.0156257      17.883653      24.224822    
    422000   1.0169237      17.865463      24.314078    
    423000   1.0222433      18.373438      24.080215    
    424000   1.0000735      18.112068      23.803242    
    425000   0.97998284     18.22919       23.694673    
    426000   1.0178059      17.779428      23.509042    
    427000   1.0512352      17.969661      23.289673    
    428000   1.0258459      17.884018      23.002889    
    429000   1.0119607      18.528789      22.948667    
    430000   1.0045756      17.812705      22.722738    
    431000   1.0115458      17.821795      22.759505    
    432000   1.0173506      18.143661      22.617611    
    433000   1.0339353      17.859508      22.74997     
    434000   1.0073295      17.679113      22.563137    
    435000   1.0171558      17.703563      22.510304    
    436000   1.0070742      17.644204      22.473184    
    437000   1.0226564      17.961011      22.226545    
    438000   0.98555074     17.769839      22.260658    
    439000   1.0152298      18.665315      22.219573    
    440000   1.0135371      17.747029      22.125313    
    441000   0.99207753     17.676826      22.030473    
    442000   1.0158354      17.132627      21.799911    
    443000   1.0243752      18.49207       21.393382    
    444000   0.99974154     18.438797      21.234328    
    445000   0.97426259     18.537813      21.225092    
    446000   0.99129842     17.810509      20.927688    
    447000   1.0009783      18.801689      20.747924    
    448000   0.9596347      18.000276      20.585065    
    449000   1.0485457      17.710517      20.417834    
    450000   1.0084414      17.684855      20.209531    
    451000   1.0239487      17.373932      20.070325    
    452000   1.0315072      17.966448      19.784955    
    453000   1.0318129      17.907697      19.530005    
    454000   0.95838273     17.498029      19.263352    
    455000   0.95805857     18.17471       19.127341    
    456000   0.98969413     18.003434      19.077263    
    457000   1.0045263      18.049093      18.943689    
    458000   1.0024203      17.36227       18.746164    
    459000   0.98850416     18.022163      18.680205    
    460000   1.0065494      17.706074      18.465071    
    461000   1.0433832      18.568384      18.253917    
    462000   0.98554696     18.110187      18.077226    
    463000   1.0082041      18.716736      17.865598    
    464000   0.9514472      17.649332      17.726535    
    465000   0.98442101     17.844455      17.549174    
    466000   0.9941134      17.480877      17.2327      
    467000   0.98479916     17.568132      17.08239     
    468000   1.0244589      17.150732      17.079638    
    469000   0.98850845     17.468739      16.82385     
    470000   0.99561762     18.295206      16.410242    
    471000   0.99572906     17.501756      16.295072    
    472000   0.96800861     17.842356      16.15156     
    473000   0.96198879     17.455775      15.775667    
    474000   0.96292444     18.269865      15.845877    
    475000   0.97733044     17.938877      15.585602    
    476000   1.0241279      17.358908      15.431908    
    477000   0.98882767     18.07975       15.459928    
    478000   0.99167501     17.430003      15.334       
    479000   0.99541015     17.713489      15.092478    
    480000   0.98596531     17.448576      15.043125    
    481000   1.0353865      17.888457      14.884721    
    482000   1.0229406      17.402421      14.745842    
    483000   0.95453279     17.52799       14.773613    
    484000   1.01559        17.716466      14.814961    
    485000   0.9654164      17.258234      14.71384     
    486000   0.97996338     17.23639       14.839027    
    487000   0.96784132     17.356506      14.548991    
    488000   1.0195274      17.999188      14.465375    
    489000   0.97374295     17.953967      14.124165    
    490000   0.96480052     17.482861      14.255521    
    491000   0.99031483     18.015159      14.134211    
    492000   1.0212665      17.487541      14.202082    
    493000   0.98030251     17.370341      14.027765    
    494000   1.0050985      17.932426      13.803847    
    495000   0.9644246      17.981474      13.618392    
    496000   1.0279103      17.173694      13.567745    
    497000   1.0388672      17.744219      13.373113    
    498000   1.0589029      17.419183      13.318495    
    499000   1.0510942      17.62616       13.045402    
    500000   1.0089856      17.136638      12.861688    
    501000   1.0134684      17.665966      12.727362    
    502000   1.0453278      17.586103      12.517361    
    503000   1.0228101      17.67054       12.432401    
    504000   1.0065662      17.794424      12.093652    
    505000   1.0256131      17.512566      11.902767    
    506000   0.96961293     17.241753      11.750197    
    507000   0.95590285     17.62674       11.733973    
    508000   0.97741598     17.684275      11.529027    
    509000   1.0253617      17.571543      11.470973    
    510000   0.9891911      17.754267      11.371085    
    511000   1.0054798      17.230407      11.184721    
    512000   1.0016463      17.128157      10.984932    
    513000   1.0088299      17.190111      10.935284    
    514000   0.97890038     17.378993      10.885177    
    515000   1.0354947      17.622883      10.597708    
    516000   1.0556118      17.51973       10.350261    
    517000   0.97426044     17.58713       9.9997155    
    518000   1.0414742      17.55889       9.8093943    
    519000   1.0220467      16.854899      9.6126382    
    520000   1.0034545      16.639614      9.30549      
    521000   1.0047104      17.315932      9.055982     
    522000   0.96698816     17.36933       8.9850625    
    523000   1.0134332      17.286435      8.8137085    
    524000   0.99731989     16.864745      8.6873501    
    525000   0.98844338     17.671729      8.6389101    
    526000   1.0224035      17.018971      8.6760242    
    527000   1.0248824      16.944076      8.8014161    
    528000   1.008865       17.113112      8.5283514    
    529000   0.99091953     17.115135      8.4123372    
    530000   1.0359951      17.433202      8.2933734    
    531000   0.98701957     16.966475      8.1108268    
    532000   0.99108208     16.833703      7.9780618    
    533000   1.0250005      16.757932      7.8887588    
    534000   1.0228809      17.274695      8.0346356    
    535000   1.0153453      16.595491      7.8884304    
    536000   1.022988       16.442304      7.9393289    
    537000   0.9964101      16.865781      7.8408668    
    538000   0.98074939     17.10161       7.5326999    
    539000   1.0019268      17.054144      7.4033757    
    540000   0.99075778     16.935792      7.4376006    
    541000   0.99509574     17.783983      7.3287765    
    542000   1.0397424      17.496552      7.3236054    
    543000   1.0068813      16.955798      7.1771788    
    544000   0.96779676     16.608162      7.0516086    
Fix halt condition for fix-id 3 met on step 545000 with value 6.895873019456843 (src/fix_halt.cpp:237)
    545000   0.96955792     16.482861      6.895873     
Loop time of 579.682 on 2 procs for 445000 steps with 1001 atoms

Performance: 663260.241 tau/day, 767.662 timesteps/s
113.5% CPU use with 1 MPI tasks x 2 OpenMP threads

MPI task timing breakdown:
Section |  min time  |  avg time  |  max time  |%varavg| %total
---------------------------------------------------------------
Pair    | 91.839     | 91.839     | 91.839     |   0.0 | 15.84
Bond    | 10.132     | 10.132     | 10.132     |   0.0 |  1.75
Neigh   | 452.34     | 452.34     | 452.34     |   0.0 | 78.03
Comm    | 0.14827    | 0.14827    | 0.14827    |   0.0 |  0.03
Output  | 1.3745     | 1.3745     | 1.3745     |   0.0 |  0.24
Modify  | 22.33      | 22.33      | 22.33      |   0.0 |  3.85
Other   |            | 1.519      |            |       |  0.26

Nlocal:           1001 ave        1001 max        1001 min
Histogram: 1 0 0 0 0 0 0 0 0 0
Nghost:              0 ave           0 max           0 min
Histogram: 1 0 0 0 0 0 0 0 0 0
Neighs:         220042 ave      220042 max      220042 min
Histogram: 1 0 0 0 0 0 0 0 0 0

Total # of neighbors = 220042
Ave neighs/atom = 219.82218
Ave special neighs/atom = 1.998002
Neighbor list builds = 4381
Dangerous builds = 0

# This simulation is done
# Move onto the next one
clear
  using 2 OpenMP thread(s) per MPI task
package omp 0
using multi-threaded neighbor list subroutines
next f
jump SELF

###
# Reference paper:
# K. Kremer and G. S. Grest
# Dynamics of entangled linear polymer melts: A molecular-dynamics simulation
# J Chem Phys 92, 5057 (1990)

##################################
# MIHIR: for branched polymers
# LJ minimum first to expand and explore, then collapse
###

###
# Looping through the various N1B5 polymers to simulate,
# define variables to switch through
variable f index bb40nuc1bl20bn5d30tot100V2 bb80nuc1bl40bn5d30tot200V2 bb120nuc1bl60bn5d30tot300V2 bb160nuc1bl80bn5d30tot400V2 bb200nuc1bl100bn5d30tot500V2 bb240nuc1bl120bn5d30tot600V2 bb280nuc1bl140bn5d30tot700V2 bb320nuc1bl160bn5d30tot800V2 bb360nuc1bl180bn5d30tot900V2 bb400nuc1bl200bn5d30tot1000V2 bb440nuc1bl220bn5d30tot1100V2 bb480nuc1bl240bn5d30tot1200V2
# variable f index bb40nuc1bl20bn5d30tot100V3 bb80nuc1bl40bn5d30tot200V3 bb120nuc1bl60bn5d30tot300V3 bb160nuc1bl80bn5d30tot400V3 bb200nuc1bl100bn5d30tot500V3 bb240nuc1bl120bn5d30tot600V3 bb280nuc1bl140bn5d30tot700V3 bb320nuc1bl160bn5d30tot800V3 bb360nuc1bl180bn5d30tot900V3 bb400nuc1bl200bn5d30tot1000V3 bb440nuc1bl220bn5d30tot1100V3 bb480nuc1bl240bn5d30tot1200V3
#variable f index bb40nuc1bl20bn5d30tot100 bb80nuc1bl40bn5d30tot200 bb120nuc1bl60bn5d30tot300 bb160nuc1bl80bn5d30tot400 bb200nuc1bl100bn5d30tot500 bb240nuc1bl120bn5d30tot600 bb280nuc1bl140bn5d30tot700 bb320nuc1bl160bn5d30tot800 bb360nuc1bl180bn5d30tot900 bb400nuc1bl200bn5d30tot1000 bb440nuc1bl220bn5d30tot1100 bb480nuc1bl240bn5d30tot1200
###


###
# Box and units  (use LJ units and periodic boundaries)
###

units lj
log N1B5/trial2/logs3/$f.log
log N1B5/trial2/logs3/bb440nuc1bl220bn5d30tot1100V2.log
