#atom_style bond #no stiffness
atom_style angle #with stiffness

boundary        p p p
###
# Pair interactions require lists of neighbours to be calculated
###

#neighbor 0.3 bin
neighbor 4 bin

neigh_modify every 1 delay 1 check yes
atom_modify sort 0 0
### Generate RESTART file, SPECIAL format, not a .txt file ###
### Useful if simulation crashes ###

restart 1000000 N1B5/trial2/restarts3/$f.restart
restart 1000000 N1B5/trial2/restarts3/bb440nuc1bl220bn5d30tot1100V2.restart
#############################



### READ "start" data file ###

read_data N1B5/trial2/dats2/$f.dat
read_data N1B5/trial2/dats2/bb440nuc1bl220bn5d30tot1100V2.dat
Reading data file ...
  orthogonal box = (-1000 -1000 -1000) to (1000 1000 1000)
  1 by 1 by 1 MPI processor grid
  reading atoms ...
  1101 atoms
  scanning bonds ...
  4 = max bonds/atom
  scanning angles ...
  10 = max angles/atom
  reading bonds ...
  1100 bonds
  reading angles ...
  1105 angles
Finding 1-2 1-3 1-4 neighbors ...
  special bond factors lj:    0        0        0       
  special bond factors coul:  0        0        0       
     5 = max # of 1-2 neighbors
     5 = max # of 1-3 neighbors
    10 = max # of 1-4 neighbors
    15 = max # of special neighbors
  special bonds CPU = 0.003 seconds
  read_data CPU = 0.195 seconds

######################

### READ "REstart" data file ###

######################



###
# Define groups (atom type 1 is group 'all')
###
group all type 1
1101 atoms in group all


###
# Dump configs - "simple dumpings"
###

###
# Dump configs + box coords
###

dump   1   all   custom   1000  N1B5/trial2/trjs3/$f.lammpstrj  id  x y z  ix iy iz
dump   1   all   custom   1000  N1B5/trial2/trjs3/bb440nuc1bl220bn5d30tot1100V2.lammpstrj  id  x y z  ix iy iz
dump_modify   1   format line "%d %.5f %.5f %.5f %d %d %d"

########################################################################


###################################################################
# Stiffness term
#
# E = K * (1+cos(theta)), K>0
#
angle_style   cosine
#change this coefficient to change stiffness (e.g. 1,5,10)
angle_coeff   1 1.0
###################################################################

###################################################################
# Pair interaction between non-bonded atoms
#
#  Lennard-Jones 12-6 potential with cutoff:
#  potential E=4epsilon[ (sigma/r)^12 - (sigma/r)^6]  for r<r_cut
#
#  1.12246 = 2^(1/6) is the minimum of the potential


pair_style      lj/cut 1.12246152962189
#pair_style      lj/cut 3

#
#  pair_modify shift yes adds a constant to the potential such

#  that E(r_cut)=0. Forces remains unchanged.
#

pair_modify     shift yes

#
#  pair_coeff for lj/cut, specify 4:
#    * atom type interacting with
#    * atom type
#    * epsilon (energy units)
#    * sigma (distance units)
#

pair_coeff      1 1 1.0 1.0
###################################################################

###################################################################
# Pair interaction between non-bonded atoms
#
#  soft potential, for PUSHING apart overlapping atoms
#  potential E=A*(1 + cos(pi*r/r_c))
#
#  1.12246 = 2^(1/6) is the cut-off r_c

#pair_style     soft 1.12246152962189

#
#  pair_coeff for soft, specify 3:
#    * atom type interacting with
#    * atom type
#    * A
#
#

#pair_coeff      1 1 100.0
###################################################################

###################################################################
# Pair interaction between bonded atoms
#
# Fene potential + Lennard Jones 12-6:

#
#  E= - 0.5 K R0^2 ln[ 1- (r/R0)^2]
#     + 4epsilon[ (sigma/r)^12 - (sigma/r)^6] + epsilon
#

bond_style   fene


#
# For style fene, specify:
#   * bond type
#   * K (energy/distance^2)
#   * R0 (distance)
#   * epsilon (energy)  (LJ component)
#   * sigma (distance)  (LJ component)
#


special_bonds fene #<=== I M P O R T A N T (new command)
Finding 1-2 1-3 1-4 neighbors ...
  special bond factors lj:    0        1        1       
  special bond factors coul:  0        1        1       
     5 = max # of 1-2 neighbors
    15 = max # of special neighbors
  special bonds CPU = 0.001 seconds

bond_coeff   1   30   2   1.0   1.0


###################################################

###################################################################
# Pair interaction between bonded atoms
#
# Harmonic potential:
#
#  E= K * (R-R0)^2
#

#bond_style   harmonic

#
# For style harmonic, specify:
#   * bond type
#   * K (energy/distance^2)
#   * R0 (distance)
#

#bond_coeff   1   60.0   1.0
#bond_coeff   2   harmonic 0.1   1.0

###################################################
compute 1 all gyration
variable rog equal c_1
#compute 2 all coord/atom cutoff 1.1

#dump 2 all custom 10000 contact_number.dump id c_2


###
# Set up fixes
###
thermo_style   custom   step  temp enthalpy c_1
fix 1 all nve   ###NVE ensemble

fix 2 all   langevin   1.0 1.0 1.0  778655   ###Langevin integrator Tstart Tstop 1/friction rndseed


##### Sample thermodynamic info  (temperature, energy, pressure, etc.) #####
thermo 1000









############################################################################

###
# set timestep of integrator

timestep 0.01

###
# run integration for a number of steps
###
#run 0
#variable r equal c_1
#if "$r < 63.1" then "quit 1"

# lj potential minimum, cause molecule to explore
run 100000
Generated 0 of 0 mixed pair_coeff terms from geometric mixing rule
Last active /omp style is angle_style cosine/omp
Neighbor list info ...
  update: every = 1 steps, delay = 1 steps, check = yes
  max neighbors/atom: 2000, page size: 100000
  master list distance cutoff = 5.1224615
  ghost atom cutoff = 5.1224615
  binsize = 2.5612308, bins = 781 781 781
  1 neighbor lists, perpetual/occasional/extra = 1 0 0
  (1) pair lj/cut/omp, perpetual
      attributes: half, newton on, omp
      pair build: half/bin/newton/omp
      stencil: half/bin/3d
      bin: standard
WARNING: Communication cutoff 5.12246152962189 is shorter than a bond length based estimate of 5.455. This may lead to errors. (src/comm.cpp:723)
Per MPI rank memory allocation (min/avg/max) = 1863 | 1863 | 1863 Mbytes
   Step          Temp         Enthalpy         c_1      
         0   0              13.254597      115.86856    
      1000   1.0327096      17.933035      115.17106    
      2000   0.9973373      18.10337       114.37027    
      3000   1.0113585      18.479061      113.84896    
      4000   1.0013774      18.803793      113.30426    
      5000   1.0567608      18.176192      112.75081    
      6000   1.0050276      18.736123      112.42229    
      7000   1.0164597      18.707856      111.87251    
      8000   1.0507497      18.971999      110.96854    
      9000   1.0142946      19.170637      110.4        
     10000   0.97270352     18.677332      110.13438    
     11000   1.0137245      18.763931      109.64195    
     12000   0.99475731     19.275156      109.1791     
     13000   0.9642629      19.151166      108.84211    
     14000   1.0164446      19.201149      108.5656     
     15000   1.0142768      19.426684      108.18126    
     16000   0.96598255     18.982064      107.66141    
     17000   0.97632578     19.3833        107.24175    
     18000   1.0271283      19.299718      106.69584    
     19000   0.98849742     19.467519      106.47662    
     20000   1.0145599      19.352288      106.20946    
     21000   1.0027179      19.40576       105.98464    
     22000   0.9894217      19.337156      105.684      
     23000   1.0294922      19.542078      105.21806    
     24000   0.98337041     18.947372      104.9313     
     25000   0.97259071     19.401196      104.36725    
     26000   0.99934928     19.495443      103.86954    
     27000   0.99859411     19.472934      103.6245     
     28000   1.0016018      19.405436      103.4837     
     29000   0.97449735     19.462652      103.26361    
     30000   0.99223222     19.0335        103.10327    
     31000   0.98068502     19.343912      102.98491    
     32000   1.0138597      19.739796      102.48199    
     33000   1.0350735      19.467516      102.04971    
     34000   1.0066726      19.726107      101.84586    
     35000   0.98141972     19.612692      101.64184    
     36000   1.0172237      19.364366      101.50178    
     37000   1.0085094      19.900833      101.38505    
     38000   1.0293028      19.109681      101.28232    
     39000   1.0029472      19.532482      100.90616    
     40000   0.98891154     19.967945      100.54422    
     41000   0.98776436     19.875429      100.30729    
     42000   0.9668256      19.58556       100.20739    
     43000   1.0024997      19.916926      99.955509    
     44000   0.98783852     19.878155      99.557462    
     45000   0.98863835     19.908003      99.441303    
     46000   1.0224948      19.655326      99.130047    
     47000   1.0392236      19.597869      98.866357    
     48000   1.0078284      19.938055      98.670757    
     49000   1.0337341      20.291293      98.487804    
     50000   0.98445414     20.212302      98.175469    
     51000   0.94050929     20.148137      97.865873    
     52000   1.0231723      19.944772      97.52264     
     53000   0.99123443     19.688195      97.268854    
     54000   1.0103208      19.814691      96.890102    
     55000   0.98125909     19.718385      96.596465    
     56000   0.99293514     20.545719      96.456152    
     57000   1.0324734      19.969727      96.21532     
     58000   0.98180519     19.857772      95.744444    
     59000   0.97921525     19.66946       95.545759    
     60000   0.995692       20.391058      95.46414     
     61000   0.98703532     20.312085      95.416526    
     62000   0.99740518     19.629869      95.157565    
     63000   0.99199812     19.770521      95.051784    
     64000   1.000884       19.756855      94.78943     
     65000   1.0068074      19.567111      94.562197    
     66000   0.9885056      20.025182      94.188526    
     67000   1.0286129      20.143133      93.990707    
     68000   1.0313207      20.352319      93.841958    
     69000   0.97947804     20.342885      93.560934    
     70000   1.0174077      19.905004      93.212467    
     71000   0.98567676     20.167168      92.917978    
     72000   1.0004512      19.772974      92.811177    
     73000   1.0205633      20.347818      92.475168    
     74000   0.99611226     19.850101      92.345063    
     75000   1.0313207      19.701208      92.235907    
     76000   1.0008384      20.130282      91.859672    
     77000   1.0121964      20.178878      91.626973    
     78000   0.97654715     19.885454      91.686144    
     79000   1.0039686      19.980639      91.431462    
     80000   1.0070213      20.147851      91.186724    
     81000   0.99686685     20.044238      91.029513    
     82000   1.0274139      19.892482      90.890591    
     83000   0.98124063     20.233821      90.653496    
     84000   0.94595584     19.517982      90.348178    
     85000   0.96932018     19.537077      90.287951    
     86000   1.0077612      20.288195      90.083822    
     87000   1.0187968      20.28667       89.741402    
     88000   1.0027501      20.45202       89.75326     
     89000   1.0037613      20.370608      89.805279    
     90000   1.0222235      20.110642      89.730974    
     91000   0.97394098     20.034212      89.609019    
     92000   0.98384134     20.224978      89.643722    
     93000   1.0408923      20.129977      89.331419    
     94000   1.0296093      20.049063      89.161751    
     95000   0.97335278     19.734035      88.890802    
     96000   0.9606029      19.946421      89.262883    
     97000   0.95476558     19.902785      89.044001    
     98000   1.0238765      20.237061      88.681796    
     99000   1.045015       19.831435      88.70254     
    100000   0.99063763     19.388153      88.666742    
Loop time of 314.531 on 2 procs for 100000 steps with 1101 atoms

Performance: 274694.300 tau/day, 317.933 timesteps/s
95.6% CPU use with 1 MPI tasks x 2 OpenMP threads

MPI task timing breakdown:
Section |  min time  |  avg time  |  max time  |%varavg| %total
---------------------------------------------------------------
Pair    | 1.2168     | 1.2168     | 1.2168     |   0.0 |  0.39
Bond    | 2.4379     | 2.4379     | 2.4379     |   0.0 |  0.78
Neigh   | 304.66     | 304.66     | 304.66     |   0.0 | 96.86
Comm    | 0.034939   | 0.034939   | 0.034939   |   0.0 |  0.01
Output  | 0.38177    | 0.38177    | 0.38177    |   0.0 |  0.12
Modify  | 5.4488     | 5.4488     | 5.4488     |   0.0 |  1.73
Other   |            | 0.3514     |            |       |  0.11

Nlocal:           1101 ave        1101 max        1101 min
Histogram: 1 0 0 0 0 0 0 0 0 0
Nghost:              0 ave           0 max           0 min
Histogram: 1 0 0 0 0 0 0 0 0 0
Neighs:           6472 ave        6472 max        6472 min
Histogram: 1 0 0 0 0 0 0 0 0 0

Total # of neighbors = 6472
Ave neighs/atom = 5.8782925
Ave special neighs/atom = 1.9981835
Neighbor list builds = 1132
Dangerous builds = 0

# Replace lj potential, now collapse
pair_style      lj/cut 3

# Cutoff simul when gyration under 7
# Variable created with equal requires v_ + 'name'
fix 3 all halt 1000 v_rog < 7

run 3000000
Generated 0 of 0 mixed pair_coeff terms from geometric mixing rule
Last active /omp style is angle_style cosine/omp
Per MPI rank memory allocation (min/avg/max) = 1863 | 1863 | 1863 Mbytes
   Step          Temp         Enthalpy         c_1      
    100000   0.99063763     18.767367      88.666742    
    101000   1.0056812      19.810384      88.577795    
    102000   1.0502513      19.559755      88.3855      
    103000   0.99175729     19.495972      88.376949    
    104000   1.0327948      19.590121      88.172834    
    105000   1.0064225      19.675182      87.894559    
    106000   1.0034562      19.286656      87.77596     
    107000   0.97403805     19.713457      87.459804    
    108000   1.0596481      19.66235       87.400394    
    109000   1.008167       19.501836      87.223948    
    110000   0.95736476     19.198632      87.085499    
    111000   1.0094945      19.814836      86.800241    
    112000   0.98451179     19.954903      86.399412    
    113000   0.96968039     19.498045      86.155551    
    114000   1.0095077      19.895103      85.923214    
    115000   0.98256968     18.783937      85.810567    
    116000   0.99235077     19.30913       85.647172    
    117000   0.94111667     19.251462      85.322518    
    118000   1.0385678      20.033186      85.152747    
    119000   1.0055662      19.109293      85.148153    
    120000   1.0227258      19.218111      84.873136    
    121000   0.97610392     19.036908      84.583313    
    122000   1.0118703      19.273778      84.617442    
    123000   0.96206215     19.210874      84.29157     
    124000   1.0081159      19.357269      84.122246    
    125000   1.0229829      19.435942      83.97183     
    126000   1.0447261      19.351569      83.844518    
    127000   1.0287161      19.911099      83.63112     
    128000   1.0137058      19.053463      83.220775    
    129000   1.0158036      19.305294      83.210081    
    130000   0.99114554     19.006627      83.046546    
    131000   1.0174821      19.596168      82.590761    
    132000   0.98369464     19.443547      82.547309    
    133000   1.0394617      19.122297      82.419426    
    134000   1.0113811      19.752303      82.340984    
    135000   0.99713152     19.399863      81.973189    
    136000   1.0132397      19.144683      81.636653    
    137000   1.0319885      18.968819      81.484857    
    138000   0.97843828     19.359663      81.238176    
    139000   0.98960984     19.041505      81.076762    
    140000   1.0046753      19.123866      80.936341    
    141000   1.0236046      19.580071      80.795539    
    142000   1.0703471      19.061787      80.668269    
    143000   0.98370238     19.181473      80.449476    
    144000   1.0005149      19.08464       80.363562    
    145000   1.0203083      19.112391      80.000266    
    146000   0.97138208     19.594922      80.147286    
    147000   0.98575378     19.48869       80.071546    
    148000   1.007328       18.908031      79.988909    
    149000   1.0241983      18.895536      79.8981      
    150000   1.0312932      19.2502        79.738108    
    151000   0.99179894     19.034258      79.591128    
    152000   1.0142479      19.229074      79.386853    
    153000   1.009416       19.716025      79.057557    
    154000   1.0047587      18.752872      78.82285     
    155000   1.0214536      19.668406      78.625925    
    156000   1.005499       19.614575      78.33317     
    157000   0.98092841     19.048572      78.105492    
    158000   0.9983185      18.782793      77.916897    
    159000   0.97991856     19.363748      77.601756    
    160000   1.0057982      19.600941      77.445959    
    161000   1.0224964      18.875376      77.200325    
    162000   1.0335836      19.085177      77.146279    
    163000   1.0136686      19.12558       77.033937    
    164000   0.99360046     19.042848      77.01423     
    165000   0.93388282     18.442849      76.82684     
    166000   1.0478153      19.196891      76.71189     
    167000   1.0130274      19.140774      76.497898    
    168000   0.99191847     18.995974      76.210235    
    169000   1.0051501      18.839989      76.026221    
    170000   1.0258208      19.046925      75.679239    
    171000   0.97678486     18.556853      75.384465    
    172000   1.0094372      19.353522      75.15746     
    173000   1.0222043      19.536938      74.77809     
    174000   1.0103686      18.85682       74.803134    
    175000   0.96928148     18.397312      74.787828    
    176000   0.96461894     18.937961      74.664301    
    177000   1.0140679      19.197018      74.400791    
    178000   1.0076789      18.678057      74.10643     
    179000   0.98164041     18.978747      73.847314    
    180000   0.95942811     19.468019      73.490888    
    181000   1.0124963      19.007417      73.175438    
    182000   0.97322154     19.048479      72.991297    
    183000   1.0109034      19.254119      72.720824    
    184000   1.0396837      18.942089      72.653394    
    185000   1.0200334      18.665243      72.480829    
    186000   1.0139841      19.301926      72.307311    
    187000   0.97128539     19.026958      72.198555    
    188000   1.0120343      18.908325      72.115196    
    189000   1.030816       18.582922      71.758676    
    190000   1.0124053      19.016928      71.769767    
    191000   1.009084       18.649265      71.700381    
    192000   1.0333858      19.067457      71.309764    
    193000   0.98327839     18.912224      71.164453    
    194000   1.0160939      18.465465      70.706494    
    195000   0.98213475     19.248504      70.751171    
    196000   0.9761513      19.116153      70.562261    
    197000   0.98362148     19.544292      70.508147    
    198000   1.0433511      19.00759       70.490225    
    199000   1.0258876      19.193923      70.226005    
    200000   0.97860709     18.61384       70.191564    
    201000   1.0391935      18.967089      70.049537    
    202000   0.96065959     19.111298      69.901812    
    203000   0.9873372      18.797116      69.770081    
    204000   0.99398659     19.084686      69.664103    
    205000   1.0173819      18.613302      69.497096    
    206000   1.0046003      19.208459      69.261288    
    207000   1.0371996      19.489647      68.965708    
    208000   0.95621014     18.315362      68.95331     
    209000   0.97284739     18.503755      68.663371    
    210000   0.99166395     19.118499      68.357957    
    211000   0.94937725     18.751054      68.305839    
    212000   1.0224883      18.573566      68.114872    
    213000   1.0192551      19.442088      67.82283     
    214000   1.0000225      19.097686      67.614971    
    215000   1.0296319      19.129162      67.42718     
    216000   1.0006447      18.565427      67.180262    
    217000   0.96879049     18.885777      66.858479    
    218000   0.96173163     18.874606      66.571148    
    219000   1.0210334      18.153709      66.472662    
    220000   1.0050061      18.853709      66.264445    
    221000   0.97516159     18.275915      65.881344    
    222000   0.9854125      18.858838      65.557871    
    223000   0.95950344     18.369172      65.447953    
    224000   1.0092323      19.153437      65.508486    
    225000   1.0273126      19.062721      65.333347    
    226000   1.0312466      18.776109      65.177079    
    227000   1.0094629      18.875045      64.86798     
    228000   1.0549151      19.101929      64.917179    
    229000   1.0223234      18.638835      64.408807    
    230000   0.95159364     18.795021      64.216548    
    231000   1.0149101      18.918628      63.995101    
    232000   0.96175368     18.370234      63.88325     
    233000   0.98319552     18.618807      63.937284    
    234000   1.0219225      18.875961      63.871389    
    235000   1.0085735      18.766728      63.733752    
    236000   1.0015731      18.446992      63.686471    
    237000   1.0169891      18.802277      63.644352    
    238000   0.99043773     18.952975      63.421908    
    239000   1.0381852      18.38052       63.272359    
    240000   0.96265906     18.632662      62.72694     
    241000   0.98574122     18.536648      62.373289    
    242000   0.9983789      18.71472       62.009573    
    243000   0.99585188     18.747713      61.830588    
    244000   1.002784       18.866183      61.624396    
    245000   1.0014392      18.742357      61.332922    
    246000   1.0201096      18.480573      61.036592    
    247000   1.0028241      18.465984      60.969994    
    248000   1.0257757      18.925203      61.104401    
    249000   0.98121459     19.013084      60.813127    
    250000   0.98678388     18.739958      60.854713    
    251000   0.98420118     18.436335      60.644426    
    252000   1.0159889      18.665744      60.516318    
    253000   0.98561509     18.521099      60.107878    
    254000   1.0003444      18.265991      60.053932    
    255000   0.96036412     18.545237      60.118087    
    256000   0.98535967     18.475078      60.109371    
    257000   0.95690974     18.135846      59.969764    
    258000   0.9598353      18.445113      60.112491    
    259000   1.0289537      18.599447      60.156247    
    260000   1.0121719      18.722434      59.897       
    261000   0.95918737     18.699139      59.705591    
    262000   0.97915705     18.331849      59.488058    
    263000   1.0035881      18.731012      59.481263    
    264000   0.97786288     18.417744      59.196805    
    265000   1.0147268      18.920503      59.280798    
    266000   0.99955369     18.93829       59.094996    
    267000   0.9758562      18.617548      59.178726    
    268000   0.94406255     18.316729      58.940022    
    269000   0.99665296     18.792055      58.851706    
    270000   1.0193502      18.693739      58.635925    
    271000   1.0447651      19.122762      58.466978    
    272000   1.0372481      18.839564      58.302602    
    273000   0.98530811     19.377497      58.096757    
    274000   1.0352986      18.702862      58.051711    
    275000   0.99178447     18.669633      58.099152    
    276000   1.0525438      18.683824      58.02144     
    277000   1.0152012      18.5313        57.899435    
    278000   1.0114632      18.937908      57.911048    
    279000   0.99742471     18.272351      57.801558    
    280000   0.98852081     18.8285        57.377102    
    281000   1.026601       18.858272      57.344635    
    282000   0.98770616     18.380131      57.114973    
    283000   1.0413015      19.141588      56.8616      
    284000   0.99353015     18.345855      56.531864    
    285000   1.0348418      18.08167       56.185929    
    286000   0.99670635     18.917756      55.952979    
    287000   1.0066187      18.847618      55.826832    
    288000   0.98206325     18.327703      55.61272     
    289000   0.99039842     18.524096      55.619348    
    290000   0.98751002     18.273966      55.538111    
    291000   1.0052076      18.891835      55.548022    
    292000   0.99142097     18.829091      55.622568    
    293000   1.0136928      18.216888      55.556902    
    294000   1.0255401      18.738015      55.145877    
    295000   1.0189873      18.501201      54.817643    
    296000   1.0357104      18.384846      54.758966    
    297000   0.99288475     18.448167      54.608929    
    298000   0.99917832     18.789601      54.419315    
    299000   1.0131628      18.150828      54.088258    
    300000   0.99275054     18.638669      53.981401    
    301000   0.98444925     18.262882      53.856817    
    302000   0.99944284     18.048831      53.730212    
    303000   1.0034918      18.598684      53.675076    
    304000   1.0089869      18.781205      53.519985    
    305000   0.98007538     18.758662      53.534646    
    306000   0.98555216     18.297538      53.694544    
    307000   1.0494905      19.064429      53.495088    
    308000   0.99751691     18.153839      53.37827     
    309000   1.0431245      18.737242      53.189308    
    310000   1.0159636      18.458126      53.194851    
    311000   0.99620919     18.748453      53.001262    
    312000   0.99304818     18.235501      52.816747    
    313000   1.0179617      18.484509      52.549602    
    314000   0.9764425      18.43985       52.390558    
    315000   0.95943573     18.153437      52.18618     
    316000   1.023318       18.849085      52.213013    
    317000   1.0066254      18.164872      52.153821    
    318000   0.97243034     18.063322      51.930223    
    319000   1.018189       18.267869      51.804294    
    320000   1.0010926      18.123818      51.710329    
    321000   0.98794912     18.100312      51.709715    
    322000   0.99718785     18.791254      51.703657    
    323000   1.0112349      18.162282      51.732235    
    324000   0.99731032     18.414298      51.656105    
    325000   1.0010885      18.385667      51.6792      
    326000   1.015317       18.046114      51.420295    
    327000   0.97641499     17.988782      51.147867    
    328000   1.0220773      18.298636      50.943652    
    329000   0.98288989     18.408371      51.058926    
    330000   1.0657571      18.521535      51.013273    
    331000   1.0264939      19.285795      50.806076    
    332000   1.0149505      19.012905      50.717632    
    333000   0.99373491     18.64499       50.522765    
    334000   0.98212858     18.239719      50.35521     
    335000   1.019855       18.160567      50.357738    
    336000   1.0108052      18.454436      50.180331    
    337000   1.0050361      18.368873      49.854947    
    338000   1.0068034      18.079476      49.444068    
    339000   1.0224992      18.199834      49.246333    
    340000   1.0783498      18.158475      48.92378     
    341000   1.0144487      18.344915      48.721927    
    342000   1.0450945      18.165741      48.490687    
    343000   0.98249177     18.576051      48.233264    
    344000   1.0161002      18.336483      47.958789    
    345000   0.9838061      17.769403      47.828638    
    346000   0.9742695      17.578009      47.785127    
    347000   0.98826995     18.619426      47.457313    
    348000   1.0099459      18.175127      47.107502    
    349000   0.99005896     18.568283      46.921005    
    350000   1.0039805      18.249342      46.785854    
    351000   0.9962895      17.865496      46.547688    
    352000   0.98242447     17.999786      46.393827    
    353000   0.9510018      18.445072      46.26891     
    354000   1.0179599      19.072519      46.065593    
    355000   1.038335       18.792592      45.970841    
    356000   0.99790521     18.517926      45.686682    
    357000   1.0257064      18.421654      45.383595    
    358000   0.98608286     18.108109      45.26415     
    359000   0.97735287     18.106087      45.173641    
    360000   0.9796851      17.823059      45.189045    
    361000   1.0055192      17.513142      45.093527    
    362000   1.0264885      18.555464      44.864965    
    363000   1.0117533      18.233145      44.813154    
    364000   0.97210564     18.312648      44.663982    
    365000   1.0335724      18.740248      44.487522    
    366000   1.0109773      18.040864      44.345828    
    367000   0.95395102     18.248026      44.232198    
    368000   0.98332998     18.471593      44.052254    
    369000   0.98886678     18.605774      44.025693    
    370000   1.0102266      18.946839      44.111639    
    371000   1.006838       18.490151      43.944247    
    372000   0.97524152     18.119667      43.76248     
    373000   1.0093919      18.559784      43.766466    
    374000   1.0177479      18.150548      43.897335    
    375000   0.96675547     18.295796      43.802974    
    376000   0.99752504     17.864408      43.71571     
    377000   0.995256       18.787971      43.447441    
    378000   0.94762928     17.654101      43.326052    
    379000   0.97436443     17.878053      43.259453    
    380000   1.0033704      18.066772      43.090966    
    381000   1.0116547      17.825581      42.856124    
    382000   1.0000393      18.348934      42.861962    
    383000   1.0081149      18.131011      43.07291     
    384000   1.013833       18.370778      42.876112    
    385000   0.99069251     18.607447      42.864044    
    386000   0.94730723     17.985379      42.78243     
    387000   1.0077517      18.605044      42.750949    
    388000   1.0085864      18.6747        42.505379    
    389000   1.0091383      18.404676      42.46365     
    390000   0.99309515     18.389411      42.235258    
    391000   0.98912697     18.431028      42.097992    
    392000   0.96940618     17.955696      41.756298    
    393000   0.98953267     17.923454      41.513457    
    394000   0.9648386      17.934571      41.311097    
    395000   0.96407002     18.126253      41.041347    
    396000   0.97944732     18.616814      41.013744    
    397000   1.0117858      18.63118       40.925979    
    398000   0.97663381     17.423818      40.946408    
    399000   1.007898       18.247515      40.720615    
    400000   0.97224214     17.664449      40.845717    
    401000   0.99095524     17.911285      40.818285    
    402000   1.0133404      18.096639      40.503041    
    403000   0.9741638      18.184902      40.590872    
    404000   0.96843645     18.317636      40.311186    
    405000   0.98914759     18.168163      40.018403    
    406000   1.0002305      18.209961      39.696616    
    407000   0.98667125     17.695578      39.46984     
    408000   1.0293084      18.500919      39.50843     
    409000   1.0198674      18.076078      39.472964    
    410000   1.0234113      17.982266      39.405348    
    411000   0.96674481     17.728542      39.283531    
    412000   1.0258611      18.120076      39.051153    
    413000   1.0143046      18.08648       38.848443    
    414000   1.0027854      17.937554      38.662164    
    415000   1.0053482      18.985881      38.813983    
    416000   1.0014756      18.304719      38.667674    
    417000   0.9773428      17.860811      38.408303    
    418000   0.99532559     17.94752       38.245589    
    419000   1.0120138      17.503339      38.394397    
    420000   0.99792294     17.77558       38.218097    
    421000   0.958891       17.727724      38.08101     
    422000   1.0121069      17.98266       37.878765    
    423000   1.0077801      18.529534      37.603902    
    424000   1.0035072      18.098562      37.511443    
    425000   0.98800577     18.335268      37.327851    
    426000   0.9929342      18.095248      37.157217    
    427000   0.9617462      17.484955      37.089288    
    428000   0.96143873     18.069147      37.031084    
    429000   0.99683555     18.39822       36.777464    
    430000   0.98579733     18.415362      36.349259    
    431000   1.028107       18.042703      36.122475    
    432000   1.0097351      18.364169      36.120464    
    433000   0.98412807     17.811191      35.948256    
    434000   1.0091638      18.594764      35.815505    
    435000   0.94550653     18.435395      35.984265    
    436000   0.97987077     18.375687      35.932215    
    437000   1.0305269      18.227069      35.813076    
    438000   0.99814683     17.829278      35.695862    
    439000   0.97287052     17.931726      35.473424    
    440000   1.013332       17.678178      35.483604    
    441000   1.0241218      18.396067      35.287072    
    442000   0.99174039     18.118949      35.148727    
    443000   1.0348421      18.557459      35.028475    
    444000   1.0210919      18.120843      34.929818    
    445000   0.99155011     18.017038      34.74165     
    446000   0.98914979     17.444249      34.53018     
    447000   0.97253566     17.900577      33.983795    
    448000   0.97900819     18.398996      33.916087    
    449000   1.0061792      18.196439      33.771209    
    450000   1.0100141      17.861821      33.734748    
    451000   1.028957       18.43466       33.689089    
    452000   1.0096475      18.116299      33.683128    
    453000   1.018694       18.142706      33.578776    
    454000   1.0476821      17.843287      33.623522    
    455000   1.0309098      17.993463      33.426505    
    456000   1.0313109      17.604395      33.237765    
    457000   1.0145707      18.73586       32.939896    
    458000   1.0094313      18.081353      32.803028    
    459000   0.99448876     17.633043      32.790344    
    460000   1.0073171      18.012591      32.459005    
    461000   1.0023563      18.097266      32.271094    
    462000   1.0116964      17.981095      32.059748    
    463000   1.0187754      17.430774      31.715882    
    464000   0.99716075     18.214985      31.525797    
    465000   0.95078278     17.935923      31.363852    
    466000   0.98158542     18.011329      31.229192    
    467000   0.97978303     18.447355      31.210721    
    468000   0.99426981     18.295117      30.905861    
    469000   1.0246328      18.628699      30.729971    
    470000   1.0123952      17.839116      30.66639     
    471000   0.97814804     17.530768      30.488826    
    472000   0.98915071     17.968875      30.355521    
    473000   0.95654404     17.764755      30.369145    
    474000   1.0143853      17.942524      30.350616    
    475000   1.0079201      17.948703      30.406993    
    476000   0.99980656     17.857394      30.392918    
    477000   1.0528785      17.481603      30.004128    
    478000   1.0371868      18.119034      30.000909    
    479000   1.015008       18.231195      29.958982    
    480000   0.9979989      18.069407      29.92416     
    481000   0.99771818     17.696901      29.883626    
    482000   0.97409386     17.906713      29.589402    
    483000   1.0267769      17.703413      29.511753    
    484000   0.99853834     17.515741      29.333445    
    485000   1.0073409      17.877683      29.355123    
    486000   0.9785306      18.349555      29.059764    
    487000   1.0091287      18.048945      29.006685    
    488000   1.0321701      18.093268      28.77105     
    489000   1.0026505      18.108385      28.663382    
    490000   1.0001873      18.30224       28.594133    
    491000   0.99255968     17.766344      28.299269    
    492000   0.95876109     17.770488      28.055223    
    493000   0.99009496     17.980627      27.835177    
    494000   1.0060785      18.513692      27.593484    
    495000   0.97047115     18.147507      27.395845    
    496000   0.94329417     17.639252      27.272995    
    497000   0.98170079     18.12113       27.077419    
    498000   1.063099       18.154143      26.835182    
    499000   1.0359574      17.742466      26.617331    
    500000   1.0133558      18.295787      26.411347    
    501000   1.0087535      18.130716      26.118819    
    502000   1.0477392      18.158302      25.929579    
    503000   0.96708749     17.642137      25.519788    
    504000   1.0347209      17.53192       25.629746    
    505000   0.98903134     18.12197       25.658288    
    506000   0.95717083     17.87491       25.407946    
    507000   1.0217899      17.752779      25.245209    
    508000   0.93199723     17.595177      24.9932      
    509000   1.0448777      18.179511      24.87207     
    510000   0.96802926     17.815504      24.612962    
    511000   1.0214727      17.910976      24.409574    
    512000   1.0050589      18.247265      24.335406    
    513000   1.0273201      18.457439      24.173933    
    514000   0.99735012     18.168461      24.105487    
    515000   0.99331573     17.700529      23.976217    
    516000   0.99941889     17.96493       23.94925     
    517000   1.0406103      18.183871      23.89587     
    518000   1.0125573      17.696132      23.513033    
    519000   1.0081473      17.352336      23.504189    
    520000   0.99867663     17.079222      23.460397    
    521000   1.026138       17.883126      23.529834    
    522000   1.0342242      17.950318      23.38709     
    523000   0.96579453     17.624873      23.432681    
    524000   1.0037172      18.318861      23.192333    
    525000   1.0286185      17.941933      23.187433    
    526000   0.98648512     17.977521      22.930322    
    527000   0.96660044     17.762257      22.961876    
    528000   0.98567258     18.061611      22.90966     
    529000   0.98804416     17.712974      22.561757    
    530000   1.0225106      17.635019      22.538088    
    531000   0.97927173     18.16859       22.374195    
    532000   1.0230195      17.892359      22.268684    
    533000   0.99939619     17.478408      22.055024    
    534000   0.98713467     17.529326      21.986377    
    535000   0.98854617     17.489799      21.862682    
    536000   1.0125736      17.995663      21.560616    
    537000   1.0282724      17.738082      21.559146    
    538000   1.0249357      18.404763      21.634775    
    539000   1.0188532      17.834217      21.46878     
    540000   0.99470338     17.744597      21.370595    
    541000   0.98068702     17.850325      21.239589    
    542000   0.9560532      17.70361       21.417433    
    543000   0.99817529     17.806991      21.307271    
    544000   1.0052121      17.688497      21.081706    
    545000   0.95442456     17.155504      20.997401    
    546000   0.99884276     17.787154      21.027391    
    547000   0.95711535     17.751302      20.959494    
    548000   1.0280252      17.472244      20.567235    
    549000   0.97824029     17.544634      20.287531    
    550000   1.0238899      17.934119      20.095834    
    551000   1.0685837      17.964076      19.667881    
    552000   0.98497992     17.640521      19.490593    
    553000   1.0076287      18.208738      19.264608    
    554000   1.008137       17.692274      19.340721    
    555000   1.0075791      17.647617      19.203528    
    556000   1.0118526      17.800954      19.197141    
    557000   0.97386185     17.446572      18.928027    
    558000   0.99274499     17.738421      18.711471    
    559000   1.0074569      17.872431      18.442397    
    560000   1.0154246      17.728818      18.152805    
    561000   1.0244927      18.169808      18.000834    
    562000   1.0234055      17.688904      17.923703    
    563000   0.98288433     17.525373      17.57829     
    564000   0.99188616     17.689303      17.398867    
    565000   1.0493985      16.8668        17.229925    
    566000   1.0111254      17.499144      16.933696    
    567000   0.97349923     17.856828      16.988635    
    568000   0.98225369     17.118987      16.571826    
    569000   1.0319657      18.080784      16.452784    
    570000   0.99818738     17.770881      16.244243    
    571000   1.006282       17.745652      15.944793    
    572000   0.9830435      17.461176      16.159541    
    573000   1.0119383      17.706621      16.151054    
    574000   1.031102       18.220788      16.059846    
    575000   0.99731755     17.452743      15.939267    
    576000   0.98264156     17.537417      15.893435    
    577000   1.009119       17.281742      15.723559    
    578000   1.0142812      17.402367      15.53215     
    579000   1.0359545      17.376644      15.449578    
    580000   0.97673172     17.813903      15.313574    
    581000   1.0405794      17.448125      15.079036    
    582000   1.0042104      16.908909      15.042294    
    583000   1.0215398      17.329472      14.830832    
    584000   0.96715841     17.270434      14.735965    
    585000   0.99918484     18.14165       14.565444    
    586000   1.0066314      17.447285      14.325771    
    587000   0.9758617      17.794149      13.875124    
    588000   1.016125       17.87821       14.071735    
    589000   0.99658492     17.65736       13.991725    
    590000   1.047263       17.900651      13.869528    
    591000   1.0084461      17.214682      13.85544     
    592000   1.0286495      17.62673       13.692334    
    593000   0.97022728     17.69322       13.385639    
    594000   1.0126892      17.542866      13.440535    
    595000   1.0363159      17.555588      13.336091    
    596000   1.0177023      18.045656      12.991826    
    597000   1.0030548      17.429392      12.617736    
    598000   1.0007195      17.846194      12.531378    
    599000   1.0293407      17.658269      12.341155    
    600000   1.0351219      18.41489       12.200008    
    601000   0.97106737     17.499508      11.929759    
    602000   1.0123968      17.505655      11.641824    
    603000   1.015206       17.1935        11.499528    
    604000   0.97326735     17.178017      11.200915    
    605000   0.96274447     17.10846       10.981939    
    606000   0.98407815     17.131658      10.8405      
    607000   0.99414521     17.125771      10.815703    
    608000   1.0014312      17.14253       10.682266    
    609000   1.0031741      17.389916      10.666855    
    610000   1.0167546      17.244831      10.43697     
    611000   0.99504223     17.676612      10.333486    
    612000   1.010244       17.816101      10.258742    
    613000   1.0074278      17.45832       10.376533    
    614000   0.98592087     17.317717      10.242016    
    615000   1.0057199      17.258026      10.209509    
    616000   0.98012754     17.384172      10.199053    
    617000   1.0409707      17.328756      10.257914    
    618000   0.99591611     16.755617      10.199346    
    619000   1.0377904      17.505485      10.29346     
    620000   1.0333123      17.565861      10.118906    
    621000   1.0067047      17.515901      10.07766     
    622000   0.96309188     17.451632      9.7772693    
    623000   1.0108335      17.486592      9.6492463    
    624000   0.98276529     16.900037      9.5168102    
    625000   0.99573921     17.291194      9.362128     
    626000   1.05144        16.812871      9.2146096    
    627000   1.0458757      17.580121      9.2339093    
    628000   1.0066186      17.076452      9.0460293    
    629000   1.0346108      17.313457      8.9371652    
    630000   0.98524667     17.238225      8.8699997    
    631000   0.97824528     17.204773      8.8084449    
    632000   1.0025352      16.94921       8.7187883    
    633000   1.0258504      17.69117       8.4109486    
    634000   0.98544754     16.64553       8.1193577    
    635000   1.0270055      17.602299      7.9527952    
    636000   0.96833468     16.767356      7.5423084    
    637000   0.97272686     17.355519      7.5213508    
    638000   0.99637118     16.908776      7.2545522    
    639000   0.99432086     17.408009      7.1267035    
Fix halt condition for fix-id 3 met on step 640000 with value 6.891382959624669 (src/fix_halt.cpp:237)
    640000   0.98008996     17.199862      6.891383     
Loop time of 680.186 on 2 procs for 540000 steps with 1101 atoms

Performance: 685930.004 tau/day, 793.900 timesteps/s
115.0% CPU use with 1 MPI tasks x 2 OpenMP threads

MPI task timing breakdown:
Section |  min time  |  avg time  |  max time  |%varavg| %total
---------------------------------------------------------------
Pair    | 115.13     | 115.13     | 115.13     |   0.0 | 16.93
Bond    | 12.686     | 12.686     | 12.686     |   0.0 |  1.87
Neigh   | 520.08     | 520.08     | 520.08     |   0.0 | 76.46
Comm    | 0.1869     | 0.1869     | 0.1869     |   0.0 |  0.03
Output  | 1.8147     | 1.8147     | 1.8147     |   0.0 |  0.27
Modify  | 28.435     | 28.435     | 28.435     |   0.0 |  4.18
Other   |            | 1.857      |            |       |  0.27

Nlocal:           1101 ave        1101 max        1101 min
Histogram: 1 0 0 0 0 0 0 0 0 0
Nghost:              0 ave           0 max           0 min
Histogram: 1 0 0 0 0 0 0 0 0 0
Neighs:         238707 ave      238707 max      238707 min
Histogram: 1 0 0 0 0 0 0 0 0 0

Total # of neighbors = 238707
Ave neighs/atom = 216.80926
Ave special neighs/atom = 1.9981835
Neighbor list builds = 5381
Dangerous builds = 0

# This simulation is done
# Move onto the next one
clear
  using 2 OpenMP thread(s) per MPI task
package omp 0
using multi-threaded neighbor list subroutines
next f
jump SELF

###
# Reference paper:
# K. Kremer and G. S. Grest
# Dynamics of entangled linear polymer melts: A molecular-dynamics simulation
# J Chem Phys 92, 5057 (1990)

##################################
# MIHIR: for branched polymers
# LJ minimum first to expand and explore, then collapse
###

###
# Looping through the various N1B5 polymers to simulate,
# define variables to switch through
variable f index bb40nuc1bl20bn5d30tot100V2 bb80nuc1bl40bn5d30tot200V2 bb120nuc1bl60bn5d30tot300V2 bb160nuc1bl80bn5d30tot400V2 bb200nuc1bl100bn5d30tot500V2 bb240nuc1bl120bn5d30tot600V2 bb280nuc1bl140bn5d30tot700V2 bb320nuc1bl160bn5d30tot800V2 bb360nuc1bl180bn5d30tot900V2 bb400nuc1bl200bn5d30tot1000V2 bb440nuc1bl220bn5d30tot1100V2 bb480nuc1bl240bn5d30tot1200V2
# variable f index bb40nuc1bl20bn5d30tot100V3 bb80nuc1bl40bn5d30tot200V3 bb120nuc1bl60bn5d30tot300V3 bb160nuc1bl80bn5d30tot400V3 bb200nuc1bl100bn5d30tot500V3 bb240nuc1bl120bn5d30tot600V3 bb280nuc1bl140bn5d30tot700V3 bb320nuc1bl160bn5d30tot800V3 bb360nuc1bl180bn5d30tot900V3 bb400nuc1bl200bn5d30tot1000V3 bb440nuc1bl220bn5d30tot1100V3 bb480nuc1bl240bn5d30tot1200V3
#variable f index bb40nuc1bl20bn5d30tot100 bb80nuc1bl40bn5d30tot200 bb120nuc1bl60bn5d30tot300 bb160nuc1bl80bn5d30tot400 bb200nuc1bl100bn5d30tot500 bb240nuc1bl120bn5d30tot600 bb280nuc1bl140bn5d30tot700 bb320nuc1bl160bn5d30tot800 bb360nuc1bl180bn5d30tot900 bb400nuc1bl200bn5d30tot1000 bb440nuc1bl220bn5d30tot1100 bb480nuc1bl240bn5d30tot1200
###


###
# Box and units  (use LJ units and periodic boundaries)
###

units lj
log N1B5/trial2/logs3/$f.log
log N1B5/trial2/logs3/bb480nuc1bl240bn5d30tot1200V2.log
