#atom_style bond #no stiffness
atom_style angle #with stiffness

boundary        p p p
###
# Pair interactions require lists of neighbours to be calculated
###

#neighbor 0.3 bin
neighbor 4 bin

neigh_modify every 1 delay 1 check yes
atom_modify sort 0 0
### Generate RESTART file, SPECIAL format, not a .txt file ###
### Useful if simulation crashes ###

restart 1000000 N5B4/trial2/restarts2/$f.restart
restart 1000000 N5B4/trial2/restarts2/bb150nuc5bl25bn4d30tot400V2.restart
#############################



### READ "start" data file ###

read_data N5B4/trial2/dats2/$f.dat
read_data N5B4/trial2/dats2/bb150nuc5bl25bn4d30tot400V2.dat
Reading data file ...
  orthogonal box = (-1000 -1000 -1000) to (1000 1000 1000)
  1 by 1 by 1 MPI processor grid
  reading atoms ...
  401 atoms
  scanning bonds ...
  3 = max bonds/atom
  scanning angles ...
  6 = max angles/atom
  reading bonds ...
  400 bonds
  reading angles ...
  414 angles
Finding 1-2 1-3 1-4 neighbors ...
  special bond factors lj:    0        0        0       
  special bond factors coul:  0        0        0       
     4 = max # of 1-2 neighbors
     4 = max # of 1-3 neighbors
     8 = max # of 1-4 neighbors
    12 = max # of special neighbors
  special bonds CPU = 0.003 seconds
  read_data CPU = 0.167 seconds

######################

### READ "REstart" data file ###

######################



###
# Define groups (atom type 1 is group 'all')
###
group all type 1
401 atoms in group all


###
# Dump configs - "simple dumpings"
###

###
# Dump configs + box coords
###

dump   1   all   custom   1000  N5B4/trial2/trjs2/$f.lammpstrj  id  x y z  ix iy iz
dump   1   all   custom   1000  N5B4/trial2/trjs2/bb150nuc5bl25bn4d30tot400V2.lammpstrj  id  x y z  ix iy iz
dump_modify   1   format line "%d %.5f %.5f %.5f %d %d %d"

########################################################################


###################################################################
# Stiffness term
#
# E = K * (1+cos(theta)), K>0
#
angle_style   cosine
#change this coefficient to change stiffness (e.g. 1,5,10)
angle_coeff   1 1.0
###################################################################

###################################################################
# Pair interaction between non-bonded atoms
#
#  Lennard-Jones 12-6 potential with cutoff:
#  potential E=4epsilon[ (sigma/r)^12 - (sigma/r)^6]  for r<r_cut
#
#  1.12246 = 2^(1/6) is the minimum of the potential


pair_style      lj/cut 1.12246152962189
#pair_style      lj/cut 3

#
#  pair_modify shift yes adds a constant to the potential such

#  that E(r_cut)=0. Forces remains unchanged.
#

pair_modify     shift yes

#
#  pair_coeff for lj/cut, specify 4:
#    * atom type interacting with
#    * atom type
#    * epsilon (energy units)
#    * sigma (distance units)
#

pair_coeff      1 1 1.0 1.0
###################################################################

###################################################################
# Pair interaction between non-bonded atoms
#
#  soft potential, for PUSHING apart overlapping atoms
#  potential E=A*(1 + cos(pi*r/r_c))
#
#  1.12246 = 2^(1/6) is the cut-off r_c

#pair_style     soft 1.12246152962189

#
#  pair_coeff for soft, specify 3:
#    * atom type interacting with
#    * atom type
#    * A
#
#

#pair_coeff      1 1 100.0
###################################################################

###################################################################
# Pair interaction between bonded atoms
#
# Fene potential + Lennard Jones 12-6:

#
#  E= - 0.5 K R0^2 ln[ 1- (r/R0)^2]
#     + 4epsilon[ (sigma/r)^12 - (sigma/r)^6] + epsilon
#

bond_style   fene


#
# For style fene, specify:
#   * bond type
#   * K (energy/distance^2)
#   * R0 (distance)
#   * epsilon (energy)  (LJ component)
#   * sigma (distance)  (LJ component)
#


special_bonds fene #<=== I M P O R T A N T (new command)
Finding 1-2 1-3 1-4 neighbors ...
  special bond factors lj:    0        1        1       
  special bond factors coul:  0        1        1       
     4 = max # of 1-2 neighbors
    12 = max # of special neighbors
  special bonds CPU = 0.002 seconds

bond_coeff   1   30   2   1.0   1.0


###################################################

###################################################################
# Pair interaction between bonded atoms
#
# Harmonic potential:
#
#  E= K * (R-R0)^2
#

#bond_style   harmonic

#
# For style harmonic, specify:
#   * bond type
#   * K (energy/distance^2)
#   * R0 (distance)
#

#bond_coeff   1   60.0   1.0
#bond_coeff   2   harmonic 0.1   1.0

###################################################
compute 1 all gyration
variable rog equal c_1
#compute 2 all coord/atom cutoff 1.1

#dump 2 all custom 10000 contact_number.dump id c_2


###
# Set up fixes
###
thermo_style   custom   step  temp enthalpy c_1
fix 1 all nve   ###NVE ensemble

fix 2 all   langevin   1.0 1.0 1.0  778655   ###Langevin integrator Tstart Tstop 1/friction rndseed


##### Sample thermodynamic info  (temperature, energy, pressure, etc.) #####
thermo 1000









############################################################################

###
# set timestep of integrator

timestep 0.01

###
# run integration for a number of steps
###
#run 0
#variable r equal c_1
#if "$r < 63.1" then "quit 1"

# lj potential minimum, cause molecule to explore
run 100000
Generated 0 of 0 mixed pair_coeff terms from geometric mixing rule
Last active /omp style is angle_style cosine/omp
Neighbor list info ...
  update: every = 1 steps, delay = 1 steps, check = yes
  max neighbors/atom: 2000, page size: 100000
  master list distance cutoff = 5.1224615
  ghost atom cutoff = 5.1224615
  binsize = 2.5612308, bins = 781 781 781
  1 neighbor lists, perpetual/occasional/extra = 1 0 0
  (1) pair lj/cut/omp, perpetual
      attributes: half, newton on, omp
      pair build: half/bin/newton/omp
      stencil: half/bin/3d
      bin: standard
WARNING: Communication cutoff 5.12246152962189 is shorter than a bond length based estimate of 5.455. This may lead to errors. (src/comm.cpp:723)
Per MPI rank memory allocation (min/avg/max) = 1861 | 1861 | 1861 Mbytes
   Step          Temp         Enthalpy         c_1      
         0   0              13.27016       26.929198    
      1000   1.0270792      19.920169      25.818479    
      2000   1.0270973      20.120362      25.190235    
      3000   1.0149002      20.274617      24.794051    
      4000   0.99533683     19.016909      24.065636    
      5000   0.96047069     19.952944      23.467962    
      6000   0.94146451     20.324185      23.417431    
      7000   0.99436948     20.844148      23.205767    
      8000   1.0711937      20.665282      23.153478    
      9000   0.98819926     20.210807      23.043416    
     10000   1.0035058      20.944592      22.771952    
     11000   1.0366038      20.323141      22.703883    
     12000   1.0591232      21.151805      22.683055    
     13000   0.99789641     20.05822       22.278857    
     14000   0.98823456     20.018615      22.134496    
     15000   1.0186042      20.661536      21.967889    
     16000   0.98421067     20.306092      21.575179    
     17000   1.0171918      20.558406      21.484808    
     18000   1.0600187      20.484992      21.283137    
     19000   0.99032002     20.551851      21.340766    
     20000   0.95081108     19.929778      21.114699    
     21000   0.96177725     20.518019      20.697664    
     22000   1.0081719      20.787994      20.552144    
     23000   1.0288199      20.133817      20.894766    
     24000   0.9822973      20.896279      20.648143    
     25000   0.97709331     20.507592      20.357674    
     26000   0.96198573     20.519277      20.378294    
     27000   0.97455919     20.152775      20.200752    
     28000   0.96406866     20.685512      19.958897    
     29000   1.0060815      19.987523      19.369657    
     30000   0.93445914     20.216768      19.238145    
     31000   0.96945515     20.493749      19.614564    
     32000   1.0163278      21.199308      19.739128    
     33000   1.0202472      20.441914      19.410133    
     34000   1.0028487      20.257263      19.313711    
     35000   1.0503126      20.755816      18.857845    
     36000   0.97049339     21.981698      18.760567    
     37000   0.97031926     20.29156       18.675482    
     38000   1.0185004      20.148905      18.543842    
     39000   1.0350849      20.789144      18.390305    
     40000   0.99136954     20.739949      18.513295    
     41000   1.0706352      20.066013      18.397239    
     42000   1.0549398      20.539818      18.552286    
     43000   1.0470629      19.819141      18.496581    
     44000   1.0442898      20.581121      18.318718    
     45000   0.97186593     20.931785      18.39361     
     46000   1.0141033      20.413177      18.500251    
     47000   1.0118129      20.783438      18.336654    
     48000   1.0214992      21.529356      17.966049    
     49000   1.0099971      20.539313      17.767596    
     50000   1.0608618      21.674738      17.909591    
     51000   0.95786344     20.389366      18.103539    
     52000   0.96597248     20.588224      17.808038    
     53000   1.0330196      20.788666      17.57191     
     54000   1.0302586      20.394468      17.708198    
     55000   0.97879513     20.87303       17.55646     
     56000   0.97777325     20.492578      17.25565     
     57000   0.95329449     20.757595      17.183463    
     58000   1.0161042      21.285533      17.244442    
     59000   0.98209173     20.657546      17.381948    
     60000   1.0337634      20.879454      17.306169    
     61000   1.0132755      21.048534      17.558191    
     62000   0.99071702     20.484445      17.598462    
     63000   1.0403258      21.058105      17.607022    
     64000   0.99409753     20.849407      17.45569     
     65000   0.98001105     20.580561      17.063987    
     66000   0.98995085     20.068054      17.046197    
     67000   0.91715694     20.806         16.677015    
     68000   1.0483237      21.117939      16.677711    
     69000   1.0353132      20.372782      16.750076    
     70000   1.0008231      20.427865      16.61825     
     71000   0.92351884     20.199927      16.716623    
     72000   0.96262948     20.113354      16.563186    
     73000   0.95793208     20.828665      16.454866    
     74000   0.94789236     20.104147      16.289182    
     75000   1.0008557      20.603162      16.038947    
     76000   0.98058903     19.824168      15.774825    
     77000   0.99413742     19.357115      15.498208    
     78000   1.0280641      20.588416      15.693845    
     79000   0.98277745     21.140994      15.738003    
     80000   1.0378989      21.442321      15.835929    
     81000   1.0138092      20.736174      15.859622    
     82000   0.9744798      20.027396      15.83279     
     83000   0.9395836      20.690416      15.503227    
     84000   1.0469696      20.963227      15.657065    
     85000   1.0188086      20.674699      15.701967    
     86000   1.0908731      20.902132      15.650444    
     87000   1.0470546      20.601049      15.937547    
     88000   0.99382766     20.115552      16.170443    
     89000   1.0048684      21.023552      16.459396    
     90000   1.0026616      21.365064      16.518876    
     91000   1.0149142      20.414953      16.377976    
     92000   0.94490295     21.010065      16.154269    
     93000   0.95134983     20.996282      16.006455    
     94000   1.0093217      20.389169      16.173292    
     95000   0.93675869     20.489456      15.923081    
     96000   0.95998049     20.022104      16.045114    
     97000   0.91674079     20.963215      15.836428    
     98000   1.0017833      21.235505      16.065782    
     99000   0.9991882      20.59212       15.629294    
    100000   0.97042169     20.857924      15.329614    
Loop time of 658.312 on 2 procs for 100000 steps with 401 atoms

Performance: 131244.674 tau/day, 151.904 timesteps/s
93.5% CPU use with 1 MPI tasks x 2 OpenMP threads

MPI task timing breakdown:
Section |  min time  |  avg time  |  max time  |%varavg| %total
---------------------------------------------------------------
Pair    | 1.2594     | 1.2594     | 1.2594     |   0.0 |  0.19
Bond    | 1.6064     | 1.6064     | 1.6064     |   0.0 |  0.24
Neigh   | 651.53     | 651.53     | 651.53     |   0.0 | 98.97
Comm    | 0.04115    | 0.04115    | 0.04115    |   0.0 |  0.01
Output  | 0.38475    | 0.38475    | 0.38475    |   0.0 |  0.06
Modify  | 3.2359     | 3.2359     | 3.2359     |   0.0 |  0.49
Other   |            | 0.2595     |            |       |  0.04

Nlocal:            401 ave         401 max         401 min
Histogram: 1 0 0 0 0 0 0 0 0 0
Nghost:              0 ave           0 max           0 min
Histogram: 1 0 0 0 0 0 0 0 0 0
Neighs:           5925 ave        5925 max        5925 min
Histogram: 1 0 0 0 0 0 0 0 0 0

Total # of neighbors = 5925
Ave neighs/atom = 14.775561
Ave special neighs/atom = 1.9950125
Neighbor list builds = 1113
Dangerous builds = 0

# Replace lj potential, now collapse
pair_style      lj/cut 3

# Cutoff simul when gyration under 7
# Variable created with equal requires v_ + 'name'
fix 3 all halt 1000 v_rog < 7

run 3000000
Generated 0 of 0 mixed pair_coeff terms from geometric mixing rule
Last active /omp style is angle_style cosine/omp
Per MPI rank memory allocation (min/avg/max) = 1861 | 1861 | 1861 Mbytes
   Step          Temp         Enthalpy         c_1      
    100000   0.97042169     19.79331       15.329614    
    101000   0.95046746     19.31104       14.930847    
    102000   0.99342426     18.388709      14.594846    
    103000   0.9823515      18.856517      14.403806    
    104000   0.86751737     17.956154      14.585159    
    105000   0.99009942     18.203117      14.422344    
    106000   1.0048467      18.66996       14.212696    
    107000   1.005756       18.835296      13.914995    
    108000   1.059078       18.018185      13.719592    
    109000   1.0046838      18.224298      13.468715    
    110000   0.95258006     17.379485      13.259705    
    111000   0.98933998     17.798006      12.891577    
    112000   0.99946861     17.802169      12.64496     
    113000   0.96894218     17.059734      12.693889    
    114000   1.0006162      17.694152      12.324543    
    115000   0.96218593     18.882797      12.216955    
    116000   1.0155701      17.749474      12.30937     
    117000   0.96039583     18.048042      12.222363    
    118000   1.0325391      18.024261      12.400969    
    119000   1.0008803      18.515274      12.286509    
    120000   1.0312992      18.948563      11.960066    
    121000   1.0049009      18.014843      11.93972     
    122000   1.0620345      17.986784      11.675234    
    123000   0.95421083     17.799567      11.629851    
    124000   0.99233387     17.673482      11.718061    
    125000   1.043224       16.720507      11.665021    
    126000   1.0318297      18.018948      11.244108    
    127000   0.99125277     18.06382       11.223434    
    128000   1.0177795      18.50839       10.9902      
    129000   1.0398211      17.654932      11.070981    
    130000   0.95819423     17.505449      11.260324    
    131000   1.05183        17.587665      11.070606    
    132000   0.99503101     16.848714      10.690162    
    133000   0.93056065     17.089587      10.625297    
    134000   1.0409597      17.594666      10.401096    
    135000   1.0357262      17.9279        10.113408    
    136000   1.0481191      18.315142      10.04345     
    137000   1.0059647      17.997209      9.9224312    
    138000   0.99110798     17.498042      9.8766926    
    139000   0.9587552      17.95312       9.8264709    
    140000   1.0448491      17.207259      9.6554142    
    141000   0.99822883     17.057045      9.7216426    
    142000   0.95628589     17.638365      9.3842412    
    143000   0.94610188     17.504957      9.312082     
    144000   1.0028608      17.869762      9.2896626    
    145000   0.93429899     17.819343      9.0975538    
    146000   1.0139471      17.228384      8.6937938    
    147000   1.0545027      18.850384      8.6099774    
    148000   0.98927967     17.374179      8.3161287    
    149000   0.96395482     17.926413      8.3071503    
    150000   0.93659782     17.254973      8.334234     
    151000   1.0325788      17.891811      8.3837542    
    152000   1.0291616      17.672031      8.4752632    
    153000   1.047632       17.654035      8.3536629    
    154000   1.0209562      18.376654      7.9453142    
    155000   0.98393648     17.342963      7.6678381    
    156000   0.91344418     17.338798      7.5065226    
    157000   1.0985092      17.65664       7.4224544    
Fix halt condition for fix-id 3 met on step 158000 with value 6.998230007437787 (src/fix_halt.cpp:237)
    158000   0.95953273     18.159308      6.99823      
Loop time of 113.614 on 2 procs for 58000 steps with 401 atoms

Performance: 441073.917 tau/day, 510.502 timesteps/s
102.9% CPU use with 1 MPI tasks x 2 OpenMP threads

MPI task timing breakdown:
Section |  min time  |  avg time  |  max time  |%varavg| %total
---------------------------------------------------------------
Pair    | 9.0103     | 9.0103     | 9.0103     |   0.0 |  7.93
Bond    | 0.97449    | 0.97449    | 0.97449    |   0.0 |  0.86
Neigh   | 101.25     | 101.25     | 101.25     |   0.0 | 89.12
Comm    | 0.023965   | 0.023965   | 0.023965   |   0.0 |  0.02
Output  | 0.21928    | 0.21928    | 0.21928    |   0.0 |  0.19
Modify  | 1.9678     | 1.9678     | 1.9678     |   0.0 |  1.73
Other   |            | 0.1683     |            |       |  0.15

Nlocal:            401 ave         401 max         401 min
Histogram: 1 0 0 0 0 0 0 0 0 0
Nghost:              0 ave           0 max           0 min
Histogram: 1 0 0 0 0 0 0 0 0 0
Neighs:          39850 ave       39850 max       39850 min
Histogram: 1 0 0 0 0 0 0 0 0 0

Total # of neighbors = 39850
Ave neighs/atom = 99.376559
Ave special neighs/atom = 1.9950125
Neighbor list builds = 444
Dangerous builds = 0

# This simulation is done
# Move onto the next one
clear
  using 2 OpenMP thread(s) per MPI task
package omp 0
using multi-threaded neighbor list subroutines
next f
jump SELF

###
# Reference paper:
# K. Kremer and G. S. Grest
# Dynamics of entangled linear polymer melts: A molecular-dynamics simulation
# J Chem Phys 92, 5057 (1990)

##################################
# MIHIR: for branched polymers
# LJ minimum first to expand and explore, then collapse
###

###
# Looping through the various N5B4 polymers to simulate,
# define variables to switch through
variable f index bb37nuc5bl6bn4d30tot100V2 bb75nuc5bl12bn4d30tot200V2 bb112nuc5bl18bn4d30tot300V2 bb150nuc5bl25bn4d30tot400V2 bb187nuc5bl31bn4d30tot500V2 bb225nuc5bl37bn4d30tot600V2 bb262nuc5bl43bn4d30tot700V2 bb300nuc5bl50bn4d30tot800V2 bb337nuc5bl56bn4d30tot900V2 bb375nuc5bl62bn4d30tot1000V2 bb412nuc5bl68bn4d30tot1100V2 bb450nuc5bl75bn4d30tot1200V2
# variable f index bb37nuc5bl6bn4d30tot100V3 bb75nuc5bl12bn4d30tot200V3 bb112nuc5bl18bn4d30tot300V3 bb150nuc5bl25bn4d30tot400V3 bb187nuc5bl31bn4d30tot500V3 bb225nuc5bl37bn4d30tot600V3 bb262nuc5bl43bn4d30tot700V3 bb300nuc5bl50bn4d30tot800V3 bb337nuc5bl56bn4d30tot900V3 bb375nuc5bl62bn4d30tot1000V3 bb412nuc5bl68bn4d30tot1100V3 bb450nuc5bl75bn4d30tot1200V3
# variable f index bb37nuc5bl6bn4d30tot100 bb75nuc5bl12bn4d30tot200 bb112nuc5bl18bn4d30tot300 bb150nuc5bl25bn4d30tot400 bb187nuc5bl31bn4d30tot500 bb225nuc5bl37bn4d30tot600 bb262nuc5bl43bn4d30tot700 bb300nuc5bl50bn4d30tot800 bb337nuc5bl56bn4d30tot900 bb375nuc5bl62bn4d30tot1000 bb412nuc5bl68bn4d30tot1100 bb450nuc5bl75bn4d30tot1200
###


###
# Box and units  (use LJ units and periodic boundaries)
###

units lj
log N5B4/trial2/logs2/$f.log
log N5B4/trial2/logs2/bb187nuc5bl31bn4d30tot500V2.log
