#atom_style bond #no stiffness
atom_style angle #with stiffness

boundary        p p p
###
# Pair interactions require lists of neighbours to be calculated
###

#neighbor 0.3 bin
neighbor 4 bin

neigh_modify every 1 delay 1 check yes
atom_modify sort 0 0
### Generate RESTART file, SPECIAL format, not a .txt file ###
### Useful if simulation crashes ###

restart 1000000 N5B4/trial2/restarts2/$f.restart
restart 1000000 N5B4/trial2/restarts2/bb225nuc5bl37bn4d30tot600V2.restart
#############################



### READ "start" data file ###

read_data N5B4/trial2/dats2/$f.dat
read_data N5B4/trial2/dats2/bb225nuc5bl37bn4d30tot600V2.dat
Reading data file ...
  orthogonal box = (-1000 -1000 -1000) to (1000 1000 1000)
  1 by 1 by 1 MPI processor grid
  reading atoms ...
  597 atoms
  scanning bonds ...
  3 = max bonds/atom
  scanning angles ...
  6 = max angles/atom
  reading bonds ...
  596 bonds
  reading angles ...
  610 angles
Finding 1-2 1-3 1-4 neighbors ...
  special bond factors lj:    0        0        0       
  special bond factors coul:  0        0        0       
     4 = max # of 1-2 neighbors
     4 = max # of 1-3 neighbors
     8 = max # of 1-4 neighbors
    12 = max # of special neighbors
  special bonds CPU = 0.003 seconds
  read_data CPU = 0.243 seconds

######################

### READ "REstart" data file ###

######################



###
# Define groups (atom type 1 is group 'all')
###
group all type 1
597 atoms in group all


###
# Dump configs - "simple dumpings"
###

###
# Dump configs + box coords
###

dump   1   all   custom   1000  N5B4/trial2/trjs2/$f.lammpstrj  id  x y z  ix iy iz
dump   1   all   custom   1000  N5B4/trial2/trjs2/bb225nuc5bl37bn4d30tot600V2.lammpstrj  id  x y z  ix iy iz
dump_modify   1   format line "%d %.5f %.5f %.5f %d %d %d"

########################################################################


###################################################################
# Stiffness term
#
# E = K * (1+cos(theta)), K>0
#
angle_style   cosine
#change this coefficient to change stiffness (e.g. 1,5,10)
angle_coeff   1 1.0
###################################################################

###################################################################
# Pair interaction between non-bonded atoms
#
#  Lennard-Jones 12-6 potential with cutoff:
#  potential E=4epsilon[ (sigma/r)^12 - (sigma/r)^6]  for r<r_cut
#
#  1.12246 = 2^(1/6) is the minimum of the potential


pair_style      lj/cut 1.12246152962189
#pair_style      lj/cut 3

#
#  pair_modify shift yes adds a constant to the potential such

#  that E(r_cut)=0. Forces remains unchanged.
#

pair_modify     shift yes

#
#  pair_coeff for lj/cut, specify 4:
#    * atom type interacting with
#    * atom type
#    * epsilon (energy units)
#    * sigma (distance units)
#

pair_coeff      1 1 1.0 1.0
###################################################################

###################################################################
# Pair interaction between non-bonded atoms
#
#  soft potential, for PUSHING apart overlapping atoms
#  potential E=A*(1 + cos(pi*r/r_c))
#
#  1.12246 = 2^(1/6) is the cut-off r_c

#pair_style     soft 1.12246152962189

#
#  pair_coeff for soft, specify 3:
#    * atom type interacting with
#    * atom type
#    * A
#
#

#pair_coeff      1 1 100.0
###################################################################

###################################################################
# Pair interaction between bonded atoms
#
# Fene potential + Lennard Jones 12-6:

#
#  E= - 0.5 K R0^2 ln[ 1- (r/R0)^2]
#     + 4epsilon[ (sigma/r)^12 - (sigma/r)^6] + epsilon
#

bond_style   fene


#
# For style fene, specify:
#   * bond type
#   * K (energy/distance^2)
#   * R0 (distance)
#   * epsilon (energy)  (LJ component)
#   * sigma (distance)  (LJ component)
#


special_bonds fene #<=== I M P O R T A N T (new command)
Finding 1-2 1-3 1-4 neighbors ...
  special bond factors lj:    0        1        1       
  special bond factors coul:  0        1        1       
     4 = max # of 1-2 neighbors
    12 = max # of special neighbors
  special bonds CPU = 0.001 seconds

bond_coeff   1   30   2   1.0   1.0


###################################################

###################################################################
# Pair interaction between bonded atoms
#
# Harmonic potential:
#
#  E= K * (R-R0)^2
#

#bond_style   harmonic

#
# For style harmonic, specify:
#   * bond type
#   * K (energy/distance^2)
#   * R0 (distance)
#

#bond_coeff   1   60.0   1.0
#bond_coeff   2   harmonic 0.1   1.0

###################################################
compute 1 all gyration
variable rog equal c_1
#compute 2 all coord/atom cutoff 1.1

#dump 2 all custom 10000 contact_number.dump id c_2


###
# Set up fixes
###
thermo_style   custom   step  temp enthalpy c_1
fix 1 all nve   ###NVE ensemble

fix 2 all   langevin   1.0 1.0 1.0  778655   ###Langevin integrator Tstart Tstop 1/friction rndseed


##### Sample thermodynamic info  (temperature, energy, pressure, etc.) #####
thermo 1000









############################################################################

###
# set timestep of integrator

timestep 0.01

###
# run integration for a number of steps
###
#run 0
#variable r equal c_1
#if "$r < 63.1" then "quit 1"

# lj potential minimum, cause molecule to explore
run 100000
Generated 0 of 0 mixed pair_coeff terms from geometric mixing rule
Last active /omp style is angle_style cosine/omp
Neighbor list info ...
  update: every = 1 steps, delay = 1 steps, check = yes
  max neighbors/atom: 2000, page size: 100000
  master list distance cutoff = 5.1224615
  ghost atom cutoff = 5.1224615
  binsize = 2.5612308, bins = 781 781 781
  1 neighbor lists, perpetual/occasional/extra = 1 0 0
  (1) pair lj/cut/omp, perpetual
      attributes: half, newton on, omp
      pair build: half/bin/newton/omp
      stencil: half/bin/3d
      bin: standard
WARNING: Communication cutoff 5.12246152962189 is shorter than a bond length based estimate of 5.455. This may lead to errors. (src/comm.cpp:723)
Per MPI rank memory allocation (min/avg/max) = 1861 | 1861 | 1861 Mbytes
   Step          Temp         Enthalpy         c_1      
         0   0              13.245946      44.183696    
      1000   0.99819652     18.901234      42.998523    
      2000   0.97864678     19.534399      42.215332    
      3000   1.0348219      19.844547      41.596784    
      4000   1.0552867      19.354007      41.061449    
      5000   1.0100084      19.687973      40.631529    
      6000   0.98019415     20.689454      40.199859    
      7000   1.0441104      20.399898      39.865676    
      8000   0.95378196     19.91554       39.525884    
      9000   0.99096622     19.919447      39.161882    
     10000   0.95707343     19.315743      38.793062    
     11000   1.0290725      21.448507      38.866053    
     12000   1.0473144      20.408852      39.001857    
     13000   1.0617618      20.408839      38.797324    
     14000   0.96766737     20.242591      38.64008     
     15000   0.97954153     20.15284       38.339196    
     16000   0.98976202     20.312819      38.114578    
     17000   0.97079156     20.231042      37.78185     
     18000   1.0341083      20.02181       37.460001    
     19000   0.96373822     20.521754      37.437301    
     20000   1.0145891      20.364239      37.343713    
     21000   1.0104067      20.27463       37.609935    
     22000   0.98978506     20.630666      37.533401    
     23000   1.0095127      20.747848      37.41312     
     24000   0.9479753      19.674922      37.234763    
     25000   0.9911014      19.974793      37.172992    
     26000   1.0015991      20.212215      36.873447    
     27000   1.0393299      20.635726      36.808283    
     28000   0.97469842     20.549457      36.642486    
     29000   0.99271821     19.785854      36.16153     
     30000   1.0570581      20.866361      36.040791    
     31000   1.0355278      20.905193      36.273414    
     32000   0.99165019     21.22138       36.270872    
     33000   1.0073506      20.694104      36.029948    
     34000   1.0233783      20.187619      35.975368    
     35000   0.98566169     19.798045      36.067103    
     36000   1.0085936      20.845786      36.302076    
     37000   1.0330991      20.266554      36.266328    
     38000   1.0274129      21.017812      35.964914    
     39000   0.95286962     20.55007       36.099166    
     40000   1.0021566      20.880404      35.57245     
     41000   0.99852352     20.37207       35.545049    
     42000   0.98573533     19.863758      35.744935    
     43000   0.99422064     21.073955      35.553497    
     44000   1.0144987      20.63781       35.495506    
     45000   1.0385222      21.247223      35.403345    
     46000   1.0006454      20.392173      34.980283    
     47000   1.0193275      20.454643      34.802514    
     48000   0.98663872     20.563071      34.584968    
     49000   0.97827514     20.271859      34.656507    
     50000   0.99608978     20.147217      34.381306    
     51000   1.0080947      20.759647      34.403518    
     52000   0.98679587     20.849269      34.421687    
     53000   0.99593941     19.942241      34.376324    
     54000   1.0010245      20.23885       34.360892    
     55000   0.97552636     20.876649      34.119731    
     56000   1.0421635      20.840875      34.19545     
     57000   0.94836126     19.709652      34.237532    
     58000   0.98364719     20.811962      34.075003    
     59000   0.98002779     20.358039      33.921601    
     60000   0.97431723     21.044497      33.504465    
     61000   1.0562445      20.56954       33.362       
     62000   0.95173247     19.876401      33.34575     
     63000   1.0225584      20.714068      33.208371    
     64000   0.97704486     20.662156      33.077924    
     65000   0.97876094     20.235238      33.125923    
     66000   0.98005856     20.682999      32.94632     
     67000   1.0046103      20.399632      33.156183    
     68000   1.0891277      20.583297      33.23653     
     69000   0.99273648     20.348655      33.367871    
     70000   1.0255593      20.252253      33.173508    
     71000   0.97974591     20.634088      33.476515    
     72000   1.0119094      20.930943      33.566605    
     73000   1.0333448      20.370444      33.816783    
     74000   0.98314737     20.700881      33.62181     
     75000   1.0189062      20.436449      33.522055    
     76000   0.98093525     20.70323       33.468291    
     77000   0.9468907      20.438055      33.418064    
     78000   1.0734322      20.940183      33.238945    
     79000   1.0445533      20.776158      33.20041     
     80000   1.01856        20.602212      33.153783    
     81000   1.0417436      20.549108      33.193587    
     82000   0.99277665     20.115761      33.295453    
     83000   1.0274498      21.084675      33.22139     
     84000   1.029744       21.120944      33.052966    
     85000   0.99177181     20.941235      33.364643    
     86000   1.0342943      20.301752      33.274778    
     87000   0.99724297     20.434912      33.297535    
     88000   1.0030563      20.296969      33.460393    
     89000   1.0697679      20.94261       33.457635    
     90000   1.0206174      19.891848      33.685618    
     91000   1.0494378      20.927278      33.97787     
     92000   1.0318347      20.655063      34.072867    
     93000   1.0169753      19.781074      34.155579    
     94000   1.0333464      20.977967      34.197672    
     95000   0.9587122      20.427913      34.00369     
     96000   1.0059325      21.18554       33.918435    
     97000   1.018535       20.738817      33.959125    
     98000   0.95095836     20.950218      33.893359    
     99000   0.93306568     20.653209      33.686148    
    100000   1.0183975      21.133412      33.51458     
Loop time of 665.276 on 2 procs for 100000 steps with 597 atoms

Performance: 129871.006 tau/day, 150.314 timesteps/s
93.8% CPU use with 1 MPI tasks x 2 OpenMP threads

MPI task timing breakdown:
Section |  min time  |  avg time  |  max time  |%varavg| %total
---------------------------------------------------------------
Pair    | 1.598      | 1.598      | 1.598      |   0.0 |  0.24
Bond    | 2.1713     | 2.1713     | 2.1713     |   0.0 |  0.33
Neigh   | 656.22     | 656.22     | 656.22     |   0.0 | 98.64
Comm    | 0.045076   | 0.045076   | 0.045076   |   0.0 |  0.01
Output  | 0.43249    | 0.43249    | 0.43249    |   0.0 |  0.07
Modify  | 4.4537     | 4.4537     | 4.4537     |   0.0 |  0.67
Other   |            | 0.3595     |            |       |  0.05

Nlocal:            597 ave         597 max         597 min
Histogram: 1 0 0 0 0 0 0 0 0 0
Nghost:              0 ave           0 max           0 min
Histogram: 1 0 0 0 0 0 0 0 0 0
Neighs:           7055 ave        7055 max        7055 min
Histogram: 1 0 0 0 0 0 0 0 0 0

Total # of neighbors = 7055
Ave neighs/atom = 11.81742
Ave special neighs/atom = 1.9966499
Neighbor list builds = 1142
Dangerous builds = 0

# Replace lj potential, now collapse
pair_style      lj/cut 3

# Cutoff simul when gyration under 7
# Variable created with equal requires v_ + 'name'
fix 3 all halt 1000 v_rog < 7

run 3000000
Generated 0 of 0 mixed pair_coeff terms from geometric mixing rule
Last active /omp style is angle_style cosine/omp
Per MPI rank memory allocation (min/avg/max) = 1861 | 1861 | 1861 Mbytes
   Step          Temp         Enthalpy         c_1      
    100000   1.0183975      20.105266      33.51458     
    101000   1.0071465      19.760337      32.996215    
    102000   0.95802546     19.085746      32.951208    
    103000   1.0079797      19.021827      32.897894    
    104000   0.9534759      18.900641      32.850929    
    105000   1.0521101      18.729183      32.968439    
    106000   0.98272564     17.995353      32.790954    
    107000   0.98044562     17.838884      32.643752    
    108000   0.98102923     18.243656      32.537673    
    109000   0.94862945     18.887173      32.372806    
    110000   0.98373288     18.489815      31.988322    
    111000   1.0278688      17.757737      31.943516    
    112000   1.0092634      18.206697      31.705104    
    113000   0.99510527     18.404935      31.506554    
    114000   1.0291988      17.979446      31.367003    
    115000   0.96709647     18.174002      31.242163    
    116000   0.96299842     17.764108      30.966943    
    117000   1.0193812      18.162536      30.587127    
    118000   1.0183655      18.916         30.157618    
    119000   0.93997899     18.080992      29.851606    
    120000   0.96900941     18.386483      29.746601    
    121000   0.99950429     18.302425      29.423786    
    122000   0.9844862      17.682493      29.17593     
    123000   0.97759675     18.332517      29.041174    
    124000   0.98940015     17.692401      28.872123    
    125000   0.9936014      18.635947      28.546348    
    126000   0.94974539     17.579061      28.558597    
    127000   0.96612978     17.673174      28.354902    
    128000   0.93210751     17.982868      28.21893     
    129000   0.98614922     18.443077      28.19989     
    130000   0.96122087     18.172872      28.257927    
    131000   1.0374955      17.520324      28.226029    
    132000   1.0108748      18.030723      28.056803    
    133000   0.97666003     17.226059      27.808631    
    134000   0.997443       18.431059      27.638748    
    135000   0.94312885     18.615658      27.465581    
    136000   0.98493433     17.575373      27.561243    
    137000   0.985118       18.046197      27.639906    
    138000   1.0180214      18.226641      27.560511    
    139000   0.98386397     17.806701      27.801856    
    140000   1.008329       17.023315      27.801969    
    141000   0.96659436     18.01074       27.789607    
    142000   1.0214002      18.15636       27.581896    
    143000   0.97643106     17.407492      27.125124    
    144000   1.0562251      18.062496      27.140516    
    145000   0.98795081     17.292966      26.953083    
    146000   1.0250101      17.827806      26.993507    
    147000   0.97328677     18.157323      26.84627     
    148000   1.0368723      17.806711      26.707036    
    149000   1.0381112      17.804096      26.691063    
    150000   1.0105744      18.14179       26.657979    
    151000   1.0032805      18.861159      26.595796    
    152000   0.9456519      18.149587      26.422604    
    153000   0.9782751      18.379828      26.129407    
    154000   0.98453974     18.093646      26.0505      
    155000   0.96912335     18.19497       25.710317    
    156000   1.0026384      17.562393      25.510621    
    157000   1.0122371      18.099231      25.18231     
    158000   0.98481236     18.29115       25.201884    
    159000   1.033144       17.522691      25.168415    
    160000   1.005231       17.663734      25.287694    
    161000   0.99410712     18.335029      25.098261    
    162000   0.95596337     18.203783      24.525183    
    163000   1.0300431      18.097099      24.119604    
    164000   1.0387014      17.736277      23.523285    
    165000   1.0133091      17.964774      23.689697    
    166000   0.9848597      18.131209      23.746017    
    167000   1.0537531      17.696285      23.434287    
    168000   1.0287879      17.345981      23.251785    
    169000   1.0092147      17.914178      23.185675    
    170000   1.0242481      18.017898      23.203664    
    171000   1.0120577      18.063843      22.960037    
    172000   0.97100567     17.470084      22.522603    
    173000   0.99990986     17.626091      22.303857    
    174000   0.99848896     17.644933      22.102941    
    175000   1.0227537      17.628682      21.726669    
    176000   0.96892529     18.040177      21.613745    
    177000   0.93583987     17.547201      21.404942    
    178000   1.0079864      18.038823      20.816823    
    179000   0.98610085     18.320332      21.193644    
    180000   0.99080787     17.522169      21.26122     
    181000   0.93579908     18.220564      21.261053    
    182000   1.042308       17.736457      21.193841    
    183000   0.9915785      18.009358      20.891061    
    184000   1.0538159      17.670313      20.459269    
    185000   0.93269094     17.440544      20.343692    
    186000   1.0015817      17.440336      20.24896     
    187000   1.0261369      18.075222      20.278273    
    188000   1.0247486      17.987089      20.33581     
    189000   0.94283931     17.658708      20.310297    
    190000   1.0414057      18.318763      20.04426     
    191000   0.94478402     17.498332      19.982204    
    192000   1.0048295      17.970407      20.123553    
    193000   0.9824776      18.258841      20.082438    
    194000   1.00198        17.914047      19.985152    
    195000   0.97867941     18.326211      19.772472    
    196000   0.93914071     17.718658      19.736936    
    197000   0.94737951     17.286474      19.531301    
    198000   0.93733452     17.357158      19.350714    
    199000   0.96341041     17.020589      19.534796    
    200000   0.99568092     17.549487      19.167984    
    201000   1.0047681      17.179551      18.857121    
    202000   1.0068051      17.802374      18.672088    
    203000   1.0082708      18.306298      18.199336    
    204000   1.0732569      17.543064      18.006459    
    205000   1.043915       17.424915      17.987401    
    206000   1.0305205      17.330275      17.758416    
    207000   1.0283146      18.503885      17.746783    
    208000   1.0003533      17.149479      17.713818    
    209000   0.99428092     17.24668       17.456013    
    210000   0.92464566     17.633377      17.414833    
    211000   1.0393641      18.105015      16.944119    
    212000   1.0128329      17.569565      16.777836    
    213000   1.0082256      18.494331      16.396172    
    214000   1.064966       17.721955      16.529305    
    215000   1.0936021      18.186333      16.809828    
    216000   1.0180266      18.016355      16.921996    
    217000   1.0498383      17.467459      17.053505    
    218000   0.98587985     17.613897      16.793947    
    219000   1.0193005      17.693331      16.567761    
    220000   0.96090973     18.632226      16.659692    
    221000   1.057324       18.468094      16.523965    
    222000   0.96399762     17.454313      16.545871    
    223000   0.99036855     17.440096      16.508881    
    224000   1.037735       17.626731      16.642796    
    225000   0.99765629     17.554983      16.905172    
    226000   0.93717758     17.026661      16.849481    
    227000   1.000544       17.681334      16.626335    
    228000   1.0396682      17.735648      16.532219    
    229000   1.0390523      17.31588       16.469609    
    230000   0.99857698     17.0963        16.604735    
    231000   0.98800026     17.600072      16.60914     
    232000   0.9807907      17.571131      16.614377    
    233000   1.0180524      17.50602       16.256761    
    234000   0.98383772     16.660263      16.132331    
    235000   1.0452755      17.930626      16.21082     
    236000   0.99872872     18.009959      15.782255    
    237000   1.0422207      17.655261      15.849231    
    238000   0.94887858     17.982738      15.624579    
    239000   0.96914099     17.345617      15.30267     
    240000   1.0206448      17.340597      14.938648    
    241000   0.97002522     17.10991       14.633125    
    242000   1.0420725      17.912651      14.702498    
    243000   1.0215415      17.924862      14.745385    
    244000   1.0194849      18.048616      14.597266    
    245000   1.0112073      18.265259      14.587831    
    246000   0.9688359      17.632012      14.37908     
    247000   1.0226379      17.387408      14.041413    
    248000   0.98856048     17.330637      13.874031    
    249000   0.99646943     17.089172      14.015874    
    250000   0.93802217     17.544822      13.907931    
    251000   1.0046356      18.173066      13.929328    
    252000   1.041097       17.847163      13.669176    
    253000   0.99302972     17.981432      13.263749    
    254000   0.98119842     17.424073      12.977757    
    255000   0.98577013     17.176587      12.885743    
    256000   1.0004675      16.791025      12.604548    
    257000   1.0462164      17.328545      12.664539    
    258000   1.0222908      17.026686      12.662971    
    259000   0.98246344     17.284275      12.510924    
    260000   1.0245415      17.870975      12.381504    
    261000   0.99253129     16.862957      12.411308    
    262000   1.0218813      17.999303      12.272572    
    263000   1.0187166      17.569495      12.192348    
    264000   1.0151098      17.385351      11.865557    
    265000   0.98086508     17.516503      11.869175    
    266000   0.98621643     17.557248      11.760803    
    267000   1.0159704      17.451562      11.553549    
    268000   0.95775309     17.573222      11.267992    
    269000   0.97499096     17.109779      11.158198    
    270000   1.0443112      17.33832       10.970345    
    271000   0.99968115     17.423961      10.718911    
    272000   0.98043511     17.204663      10.420063    
    273000   1.0364926      17.61181       10.097084    
    274000   1.0583777      17.662656      9.8450903    
    275000   1.0091867      17.144195      9.7221372    
    276000   1.0300644      17.569559      9.4138275    
    277000   1.0067291      17.669039      9.3005222    
    278000   0.94867977     17.115226      9.348108     
    279000   1.0524641      17.92464       9.3675592    
    280000   0.98065028     17.072126      9.46892      
    281000   1.0204287      17.303101      9.2609738    
    282000   1.0046041      17.781748      9.31117      
    283000   0.98862311     17.328851      9.2866637    
    284000   1.0028398      18.150239      9.0507592    
    285000   0.97358302     17.385034      8.8586138    
    286000   1.0138921      17.103824      8.9354259    
    287000   1.0011388      16.625729      8.6577176    
    288000   0.98830433     17.082557      8.6221353    
    289000   1.038727       16.894134      8.5270979    
    290000   0.99771255     17.75538       8.5585296    
    291000   1.0312165      17.755692      8.7105576    
    292000   0.97625608     17.645223      8.1675428    
    293000   0.96413632     17.230458      8.2317543    
    294000   1.0110023      16.928194      8.1087007    
    295000   1.0434598      17.397992      7.8139023    
    296000   1.0653977      17.070075      7.9894677    
    297000   0.98490226     17.423506      7.6942143    
    298000   0.98494475     17.043015      7.6358923    
    299000   0.9892734      17.380233      7.6413614    
    300000   1.0208672      17.355061      7.6489403    
    301000   1.0206791      18.519194      7.7421978    
    302000   1.028951       18.290763      7.8951544    
    303000   0.9733676      17.529052      7.8321517    
    304000   0.97786297     16.363792      7.7431293    
    305000   1.0313833      17.361136      7.6785539    
    306000   1.031669       17.944563      7.7964461    
    307000   1.0189616      17.809711      7.8258716    
    308000   1.0306447      16.424223      7.9410092    
    309000   0.99854044     17.089374      8.1615744    
    310000   1.025931       17.441515      7.9046269    
    311000   1.0746069      17.966537      7.8965134    
    312000   0.98881453     16.73042       7.8965676    
    313000   0.95137626     17.511079      7.6215053    
    314000   0.97929962     17.504566      7.5986923    
    315000   0.9895881      17.259873      7.1705556    
    316000   0.96053002     16.798254      7.1337766    
    317000   0.99646664     17.295802      7.2198378    
    318000   1.024195       17.49665       7.0286378    
    319000   0.99361537     17.740734      7.0192429    
    320000   0.98962874     17.150451      7.0918596    
    321000   1.0345194      17.311506      7.1345302    
Fix halt condition for fix-id 3 met on step 322000 with value 6.9023753443573606 (src/fix_halt.cpp:237)
    322000   0.97638037     16.965894      6.9023753    
Loop time of 482.82 on 2 procs for 222000 steps with 597 atoms

Performance: 397265.747 tau/day, 459.798 timesteps/s
108.4% CPU use with 1 MPI tasks x 2 OpenMP threads

MPI task timing breakdown:
Section |  min time  |  avg time  |  max time  |%varavg| %total
---------------------------------------------------------------
Pair    | 62.994     | 62.994     | 62.994     |   0.0 | 13.05
Bond    | 5.3763     | 5.3763     | 5.3763     |   0.0 |  1.11
Neigh   | 401.72     | 401.72     | 401.72     |   0.0 | 83.20
Comm    | 0.10973    | 0.10973    | 0.10973    |   0.0 |  0.02
Output  | 0.97049    | 0.97049    | 0.97049    |   0.0 |  0.20
Modify  | 10.716     | 10.716     | 10.716     |   0.0 |  2.22
Other   |            | 0.9359     |            |       |  0.19

Nlocal:            597 ave         597 max         597 min
Histogram: 1 0 0 0 0 0 0 0 0 0
Nghost:              0 ave           0 max           0 min
Histogram: 1 0 0 0 0 0 0 0 0 0
Neighs:          82999 ave       82999 max       82999 min
Histogram: 1 0 0 0 0 0 0 0 0 0

Total # of neighbors = 82999
Ave neighs/atom = 139.0268
Ave special neighs/atom = 1.9966499
Neighbor list builds = 1765
Dangerous builds = 0

# This simulation is done
# Move onto the next one
clear
  using 2 OpenMP thread(s) per MPI task
package omp 0
using multi-threaded neighbor list subroutines
next f
jump SELF

###
# Reference paper:
# K. Kremer and G. S. Grest
# Dynamics of entangled linear polymer melts: A molecular-dynamics simulation
# J Chem Phys 92, 5057 (1990)

##################################
# MIHIR: for branched polymers
# LJ minimum first to expand and explore, then collapse
###

###
# Looping through the various N5B4 polymers to simulate,
# define variables to switch through
variable f index bb37nuc5bl6bn4d30tot100V2 bb75nuc5bl12bn4d30tot200V2 bb112nuc5bl18bn4d30tot300V2 bb150nuc5bl25bn4d30tot400V2 bb187nuc5bl31bn4d30tot500V2 bb225nuc5bl37bn4d30tot600V2 bb262nuc5bl43bn4d30tot700V2 bb300nuc5bl50bn4d30tot800V2 bb337nuc5bl56bn4d30tot900V2 bb375nuc5bl62bn4d30tot1000V2 bb412nuc5bl68bn4d30tot1100V2 bb450nuc5bl75bn4d30tot1200V2
# variable f index bb37nuc5bl6bn4d30tot100V3 bb75nuc5bl12bn4d30tot200V3 bb112nuc5bl18bn4d30tot300V3 bb150nuc5bl25bn4d30tot400V3 bb187nuc5bl31bn4d30tot500V3 bb225nuc5bl37bn4d30tot600V3 bb262nuc5bl43bn4d30tot700V3 bb300nuc5bl50bn4d30tot800V3 bb337nuc5bl56bn4d30tot900V3 bb375nuc5bl62bn4d30tot1000V3 bb412nuc5bl68bn4d30tot1100V3 bb450nuc5bl75bn4d30tot1200V3
# variable f index bb37nuc5bl6bn4d30tot100 bb75nuc5bl12bn4d30tot200 bb112nuc5bl18bn4d30tot300 bb150nuc5bl25bn4d30tot400 bb187nuc5bl31bn4d30tot500 bb225nuc5bl37bn4d30tot600 bb262nuc5bl43bn4d30tot700 bb300nuc5bl50bn4d30tot800 bb337nuc5bl56bn4d30tot900 bb375nuc5bl62bn4d30tot1000 bb412nuc5bl68bn4d30tot1100 bb450nuc5bl75bn4d30tot1200
###


###
# Box and units  (use LJ units and periodic boundaries)
###

units lj
log N5B4/trial2/logs2/$f.log
log N5B4/trial2/logs2/bb262nuc5bl43bn4d30tot700V2.log
