#atom_style bond #no stiffness
atom_style angle #with stiffness

boundary        p p p
###
# Pair interactions require lists of neighbours to be calculated
###

#neighbor 0.3 bin
neighbor 4 bin

neigh_modify every 1 delay 1 check yes
atom_modify sort 0 0
### Generate RESTART file, SPECIAL format, not a .txt file ###
### Useful if simulation crashes ###

restart 1000000 N5B4/trial2/restarts2/$f.restart
restart 1000000 N5B4/trial2/restarts2/bb262nuc5bl43bn4d30tot700V2.restart
#############################



### READ "start" data file ###

read_data N5B4/trial2/dats2/$f.dat
read_data N5B4/trial2/dats2/bb262nuc5bl43bn4d30tot700V2.dat
Reading data file ...
  orthogonal box = (-1000 -1000 -1000) to (1000 1000 1000)
  1 by 1 by 1 MPI processor grid
  reading atoms ...
  693 atoms
  scanning bonds ...
  3 = max bonds/atom
  scanning angles ...
  6 = max angles/atom
  reading bonds ...
  692 bonds
  reading angles ...
  706 angles
Finding 1-2 1-3 1-4 neighbors ...
  special bond factors lj:    0        0        0       
  special bond factors coul:  0        0        0       
     4 = max # of 1-2 neighbors
     4 = max # of 1-3 neighbors
     8 = max # of 1-4 neighbors
    12 = max # of special neighbors
  special bonds CPU = 0.003 seconds
  read_data CPU = 0.247 seconds

######################

### READ "REstart" data file ###

######################



###
# Define groups (atom type 1 is group 'all')
###
group all type 1
693 atoms in group all


###
# Dump configs - "simple dumpings"
###

###
# Dump configs + box coords
###

dump   1   all   custom   1000  N5B4/trial2/trjs2/$f.lammpstrj  id  x y z  ix iy iz
dump   1   all   custom   1000  N5B4/trial2/trjs2/bb262nuc5bl43bn4d30tot700V2.lammpstrj  id  x y z  ix iy iz
dump_modify   1   format line "%d %.5f %.5f %.5f %d %d %d"

########################################################################


###################################################################
# Stiffness term
#
# E = K * (1+cos(theta)), K>0
#
angle_style   cosine
#change this coefficient to change stiffness (e.g. 1,5,10)
angle_coeff   1 1.0
###################################################################

###################################################################
# Pair interaction between non-bonded atoms
#
#  Lennard-Jones 12-6 potential with cutoff:
#  potential E=4epsilon[ (sigma/r)^12 - (sigma/r)^6]  for r<r_cut
#
#  1.12246 = 2^(1/6) is the minimum of the potential


pair_style      lj/cut 1.12246152962189
#pair_style      lj/cut 3

#
#  pair_modify shift yes adds a constant to the potential such

#  that E(r_cut)=0. Forces remains unchanged.
#

pair_modify     shift yes

#
#  pair_coeff for lj/cut, specify 4:
#    * atom type interacting with
#    * atom type
#    * epsilon (energy units)
#    * sigma (distance units)
#

pair_coeff      1 1 1.0 1.0
###################################################################

###################################################################
# Pair interaction between non-bonded atoms
#
#  soft potential, for PUSHING apart overlapping atoms
#  potential E=A*(1 + cos(pi*r/r_c))
#
#  1.12246 = 2^(1/6) is the cut-off r_c

#pair_style     soft 1.12246152962189

#
#  pair_coeff for soft, specify 3:
#    * atom type interacting with
#    * atom type
#    * A
#
#

#pair_coeff      1 1 100.0
###################################################################

###################################################################
# Pair interaction between bonded atoms
#
# Fene potential + Lennard Jones 12-6:

#
#  E= - 0.5 K R0^2 ln[ 1- (r/R0)^2]
#     + 4epsilon[ (sigma/r)^12 - (sigma/r)^6] + epsilon
#

bond_style   fene


#
# For style fene, specify:
#   * bond type
#   * K (energy/distance^2)
#   * R0 (distance)
#   * epsilon (energy)  (LJ component)
#   * sigma (distance)  (LJ component)
#


special_bonds fene #<=== I M P O R T A N T (new command)
Finding 1-2 1-3 1-4 neighbors ...
  special bond factors lj:    0        1        1       
  special bond factors coul:  0        1        1       
     4 = max # of 1-2 neighbors
    12 = max # of special neighbors
  special bonds CPU = 0.001 seconds

bond_coeff   1   30   2   1.0   1.0


###################################################

###################################################################
# Pair interaction between bonded atoms
#
# Harmonic potential:
#
#  E= K * (R-R0)^2
#

#bond_style   harmonic

#
# For style harmonic, specify:
#   * bond type
#   * K (energy/distance^2)
#   * R0 (distance)
#

#bond_coeff   1   60.0   1.0
#bond_coeff   2   harmonic 0.1   1.0

###################################################
compute 1 all gyration
variable rog equal c_1
#compute 2 all coord/atom cutoff 1.1

#dump 2 all custom 10000 contact_number.dump id c_2


###
# Set up fixes
###
thermo_style   custom   step  temp enthalpy c_1
fix 1 all nve   ###NVE ensemble

fix 2 all   langevin   1.0 1.0 1.0  778655   ###Langevin integrator Tstart Tstop 1/friction rndseed


##### Sample thermodynamic info  (temperature, energy, pressure, etc.) #####
thermo 1000









############################################################################

###
# set timestep of integrator

timestep 0.01

###
# run integration for a number of steps
###
#run 0
#variable r equal c_1
#if "$r < 63.1" then "quit 1"

# lj potential minimum, cause molecule to explore
run 100000
Generated 0 of 0 mixed pair_coeff terms from geometric mixing rule
Last active /omp style is angle_style cosine/omp
Neighbor list info ...
  update: every = 1 steps, delay = 1 steps, check = yes
  max neighbors/atom: 2000, page size: 100000
  master list distance cutoff = 5.1224615
  ghost atom cutoff = 5.1224615
  binsize = 2.5612308, bins = 781 781 781
  1 neighbor lists, perpetual/occasional/extra = 1 0 0
  (1) pair lj/cut/omp, perpetual
      attributes: half, newton on, omp
      pair build: half/bin/newton/omp
      stencil: half/bin/3d
      bin: standard
WARNING: Communication cutoff 5.12246152962189 is shorter than a bond length based estimate of 5.455. This may lead to errors. (src/comm.cpp:723)
Per MPI rank memory allocation (min/avg/max) = 1862 | 1862 | 1862 Mbytes
   Step          Temp         Enthalpy         c_1      
         0   0              13.272909      56.564376    
      1000   0.99041206     18.903391      55.514394    
      2000   0.9519032      19.60281       54.733338    
      3000   0.95438645     18.66123       53.974238    
      4000   1.0267774      20.118816      53.442105    
      5000   0.98071055     19.694566      52.84306     
      6000   0.95889459     20.205094      52.71263     
      7000   0.94375243     19.498578      52.393279    
      8000   1.022081       19.321449      51.897975    
      9000   1.031232       20.425992      51.681828    
     10000   1.0194623      20.009515      51.553034    
     11000   1.0151171      20.074827      51.199772    
     12000   1.0364519      19.962537      50.802265    
     13000   0.99490728     20.145782      50.353174    
     14000   1.0417755      20.619312      50.161453    
     15000   0.96916984     19.786395      50.141084    
     16000   1.0213397      20.743906      50.020926    
     17000   0.97120178     20.127189      50.01198     
     18000   0.98929593     20.203313      49.76137     
     19000   0.9868444      20.02503       49.874811    
     20000   0.98885926     20.236225      50.009334    
     21000   0.96181638     19.778286      50.007358    
     22000   1.0349782      20.05578       49.86716     
     23000   1.0063619      20.351144      49.656454    
     24000   1.0061132      20.678519      49.371235    
     25000   1.0147695      20.739228      49.252761    
     26000   0.95962524     19.985007      49.056818    
     27000   1.0125877      21.022813      48.913297    
     28000   0.92979966     20.137914      48.809656    
     29000   1.050955       20.448512      48.771749    
     30000   1.0013599      20.007038      48.349741    
     31000   1.046611       20.374328      48.221865    
     32000   1.0192341      21.118788      47.905412    
     33000   0.98953398     20.19792       47.573689    
     34000   1.0019244      20.062059      47.010671    
     35000   0.99743085     20.745506      46.818445    
     36000   1.0370868      20.339655      46.655661    
     37000   1.0239584      20.831534      46.586691    
     38000   0.99839584     20.777321      46.596301    
     39000   1.0536797      19.901403      46.974178    
     40000   1.0216358      20.573895      46.868223    
     41000   1.0104184      20.71194       46.500106    
     42000   1.0167981      20.404143      46.334163    
     43000   0.98426569     20.713021      46.145762    
     44000   1.0232296      21.164486      45.910181    
     45000   0.98388099     20.68339       45.707113    
     46000   0.96450418     19.774927      45.560318    
     47000   1.0054028      20.73045       45.332715    
     48000   1.0270242      20.291409      45.051795    
     49000   1.0106405      20.22059       45.03819     
     50000   0.99192979     20.212209      44.747185    
     51000   1.0170276      20.410005      45.137836    
     52000   0.99504249     20.827276      45.107252    
     53000   1.0315949      19.772133      45.097907    
     54000   1.0585281      20.148189      45.30906     
     55000   0.96726272     21.065337      45.254018    
     56000   0.99946095     19.865944      45.233712    
     57000   1.0032035      21.293263      45.065535    
     58000   0.93665944     20.464166      45.033178    
     59000   1.0165928      20.216579      44.929299    
     60000   1.0285207      20.59635       44.863103    
     61000   1.0375817      21.169917      44.838409    
     62000   0.94170755     19.981698      44.89479     
     63000   1.0187761      20.467387      45.125907    
     64000   1.0053735      20.427447      45.382385    
     65000   0.98370074     20.271081      45.081063    
     66000   1.0155596      20.253321      45.143292    
     67000   1.0129543      20.602208      45.025463    
     68000   0.96495266     20.449649      44.994088    
     69000   1.0000674      20.296883      45.025361    
     70000   1.043458       20.360387      44.983782    
     71000   1.0139363      20.506062      45.140433    
     72000   1.0029091      20.74646       45.046593    
     73000   0.94711436     20.2925        45.135392    
     74000   0.99782358     21.086173      45.006711    
     75000   1.0015407      19.67914       44.810697    
     76000   0.97358533     20.473586      44.680733    
     77000   0.99803184     20.193292      44.703186    
     78000   0.97191213     20.638018      44.664152    
     79000   0.95795033     20.610218      44.803866    
     80000   0.95828865     20.667031      44.786135    
     81000   1.0159897      20.063263      44.614172    
     82000   0.98869582     20.873767      44.46241     
     83000   1.0257487      20.107103      44.435841    
     84000   1.0062901      20.768447      44.247069    
     85000   0.9934911      20.460803      44.199315    
     86000   1.0346494      20.575155      44.164049    
     87000   1.0169281      20.812624      43.67066     
     88000   1.028587       19.824991      43.759483    
     89000   1.0051187      20.160414      43.499917    
     90000   1.0270796      20.096201      43.593254    
     91000   1.0411869      20.489602      43.338803    
     92000   1.0429124      21.464492      43.312663    
     93000   1.0046045      20.745687      43.47772     
     94000   0.95814175     19.993281      43.622133    
     95000   0.97634142     20.6071        43.27842     
     96000   0.99392044     19.996734      43.244118    
     97000   0.97775648     20.520563      43.215881    
     98000   0.97896351     21.251536      42.642776    
     99000   1.035356       20.956084      42.367028    
    100000   0.96063634     20.479193      42.262868    
Loop time of 512.358 on 2 procs for 100000 steps with 693 atoms

Performance: 168632.223 tau/day, 195.176 timesteps/s
94.3% CPU use with 1 MPI tasks x 2 OpenMP threads

MPI task timing breakdown:
Section |  min time  |  avg time  |  max time  |%varavg| %total
---------------------------------------------------------------
Pair    | 1.559      | 1.559      | 1.559      |   0.0 |  0.30
Bond    | 2.2621     | 2.2621     | 2.2621     |   0.0 |  0.44
Neigh   | 502.99     | 502.99     | 502.99     |   0.0 | 98.17
Comm    | 0.043734   | 0.043734   | 0.043734   |   0.0 |  0.01
Output  | 0.40688    | 0.40688    | 0.40688    |   0.0 |  0.08
Modify  | 4.7343     | 4.7343     | 4.7343     |   0.0 |  0.92
Other   |            | 0.359      |            |       |  0.07

Nlocal:            693 ave         693 max         693 min
Histogram: 1 0 0 0 0 0 0 0 0 0
Nghost:              0 ave           0 max           0 min
Histogram: 1 0 0 0 0 0 0 0 0 0
Neighs:           7299 ave        7299 max        7299 min
Histogram: 1 0 0 0 0 0 0 0 0 0

Total # of neighbors = 7299
Ave neighs/atom = 10.532468
Ave special neighs/atom = 1.997114
Neighbor list builds = 1150
Dangerous builds = 0

# Replace lj potential, now collapse
pair_style      lj/cut 3

# Cutoff simul when gyration under 7
# Variable created with equal requires v_ + 'name'
fix 3 all halt 1000 v_rog < 7

run 3000000
Generated 0 of 0 mixed pair_coeff terms from geometric mixing rule
Last active /omp style is angle_style cosine/omp
Per MPI rank memory allocation (min/avg/max) = 1862 | 1862 | 1862 Mbytes
   Step          Temp         Enthalpy         c_1      
    100000   0.96063634     19.561097      42.262868    
    101000   1.053694       19.126301      41.957426    
    102000   1.0142521      19.117909      41.811278    
    103000   1.0034838      18.545688      41.489331    
    104000   1.0158127      19.646382      41.37527     
    105000   0.9981395      18.35726       41.520362    
    106000   1.0160413      18.076276      41.26776     
    107000   0.94612572     17.924224      41.189574    
    108000   0.97155216     18.452853      41.190786    
    109000   0.97853759     18.495172      41.160825    
    110000   0.96393624     17.427201      40.882268    
    111000   0.97963395     18.08758       40.649844    
    112000   1.0237129      17.619945      40.592734    
    113000   0.95384087     18.412527      40.298091    
    114000   1.0412803      18.22255       40.124289    
    115000   1.0259714      17.771154      40.050234    
    116000   1.0164429      18.483084      39.891552    
    117000   1.0079872      18.280519      39.57018     
    118000   1.0030154      17.937871      39.175447    
    119000   1.0341611      18.225652      38.906217    
    120000   1.0313151      17.853305      38.777959    
    121000   0.99997989     17.933764      38.65536     
    122000   1.0060697      18.436476      38.706624    
    123000   0.99565347     18.22994       38.611807    
    124000   1.0314138      17.854808      38.484742    
    125000   0.97591711     17.726015      38.347146    
    126000   1.0112823      18.062565      38.165981    
    127000   1.0077614      18.247609      38.200591    
    128000   0.97632031     18.041126      38.037243    
    129000   1.0090539      18.227104      37.958987    
    130000   0.94844152     18.200623      37.605208    
    131000   0.9837355      17.866281      37.364591    
    132000   0.96059703     17.580706      37.634661    
    133000   1.0370415      18.155285      37.645397    
    134000   0.99663629     18.099997      37.615898    
    135000   0.97826449     18.291143      37.306142    
    136000   0.9830696      18.349224      37.25314     
    137000   0.97788045     18.151343      36.901556    
    138000   1.0005843      17.123459      36.844489    
    139000   1.028932       17.963331      36.625032    
    140000   1.0024289      18.222006      36.579549    
    141000   1.0522773      18.25713       36.441519    
    142000   0.96806213     18.022294      36.413161    
    143000   1.0352562      17.836287      36.444903    
    144000   0.94679291     18.227367      36.609178    
    145000   0.9871961      17.765362      36.445568    
    146000   0.98611475     17.512595      36.385903    
    147000   1.0280661      18.697737      36.121865    
    148000   1.0705973      17.922334      35.752618    
    149000   1.0172314      18.316383      35.640831    
    150000   1.017654       18.018861      35.364584    
    151000   0.99703702     17.707049      35.421228    
    152000   1.0484379      18.639135      35.215006    
    153000   0.9401795      16.731407      35.051088    
    154000   1.0371939      18.246071      34.801019    
    155000   0.96831254     17.988636      34.75295     
    156000   1.0548603      17.270395      34.763187    
    157000   1.044916       17.812204      34.714314    
    158000   1.0169264      17.990924      34.532012    
    159000   1.0259853      18.041131      34.213218    
    160000   0.93829121     18.094888      33.772396    
    161000   0.98736366     17.836319      33.774848    
    162000   0.99637782     17.785661      33.579394    
    163000   0.98041576     18.310358      33.617186    
    164000   0.97912756     18.788974      33.390268    
    165000   0.99062687     18.64847       33.331533    
    166000   1.016684       18.318363      33.359753    
    167000   1.0452199      17.671566      33.138335    
    168000   1.0404287      18.010437      33.044655    
    169000   1.0284344      17.689542      32.969637    
    170000   0.97873756     17.868472      33.021738    
    171000   0.99862373     17.646952      33.001402    
    172000   0.98982466     18.793591      33.081865    
    173000   1.021855       18.029164      33.02192     
    174000   0.9577347      17.298381      32.839921    
    175000   1.0262506      17.456517      32.580193    
    176000   1.0003892      17.962796      32.54585     
    177000   0.96302652     16.957077      32.619249    
    178000   0.96115843     17.569034      32.791533    
    179000   0.99629287     17.714807      32.636636    
    180000   1.0217294      18.128104      32.380532    
    181000   0.93812098     17.711188      32.188283    
    182000   1.0341095      17.831591      31.914671    
    183000   0.9374733      17.695141      31.984948    
    184000   1.0110043      18.030612      31.853602    
    185000   0.97522137     17.452227      31.576701    
    186000   0.94305923     17.760813      31.214596    
    187000   0.99865968     17.956394      31.107387    
    188000   1.0539655      18.18723       30.921105    
    189000   1.018497       17.880945      30.887392    
    190000   0.9402045      18.21748       30.716051    
    191000   1.0347683      17.994294      30.333178    
    192000   1.0040474      18.293888      30.434906    
    193000   0.98029166     17.277892      30.433582    
    194000   1.0074017      17.741439      30.393621    
    195000   0.96479063     18.34601       30.469757    
    196000   1.0340844      17.967232      30.161465    
    197000   0.9868481      17.677303      30.239905    
    198000   1.0091819      18.412597      30.057594    
    199000   1.0303394      18.399669      29.881502    
    200000   0.99335146     17.927162      29.865195    
    201000   1.0375298      17.732171      29.555106    
    202000   1.0196113      18.095521      29.351569    
    203000   0.98872946     17.521046      29.129244    
    204000   0.99397934     17.809671      29.056375    
    205000   0.92680437     18.099252      28.774456    
    206000   0.98675017     17.166528      28.844919    
    207000   0.96049692     17.604849      28.932513    
    208000   1.0217285      18.300535      28.77766     
    209000   0.96439583     18.044515      28.8183      
    210000   0.94874295     17.77104       28.811709    
    211000   0.96319887     18.581395      28.689766    
    212000   0.97253912     18.169442      28.585253    
    213000   1.0003948      18.234309      28.569418    
    214000   1.0423724      18.008456      28.373294    
    215000   0.99263418     17.926916      28.000082    
    216000   1.002817       17.945141      27.885481    
    217000   1.0000605      17.60758       27.429503    
    218000   0.99189827     18.183397      27.587925    
    219000   0.96391613     17.842771      27.491851    
    220000   0.99501853     17.996683      27.660965    
    221000   1.0471724      17.705827      27.674403    
    222000   0.96882755     18.114045      27.713292    
    223000   1.0894761      18.120652      27.715669    
    224000   1.0263993      17.975848      27.425323    
    225000   1.0026314      18.478192      27.354337    
    226000   1.0257649      18.073815      27.019302    
    227000   1.00832        17.853503      26.736829    
    228000   1.0005103      18.074139      26.552408    
    229000   1.0603753      17.690744      26.531513    
    230000   0.99436157     18.339747      26.497461    
    231000   1.0043064      17.769713      26.366822    
    232000   1.0034663      17.672993      26.210574    
    233000   0.96984948     17.534317      26.217596    
    234000   0.97467204     17.756915      26.479948    
    235000   1.0395535      18.070744      26.244951    
    236000   1.0209967      17.995124      26.146742    
    237000   0.92593971     17.553286      26.10277     
    238000   1.016621       17.6489        26.121142    
    239000   1.0058999      16.821955      26.166686    
    240000   1.0100738      18.109882      25.855895    
    241000   0.98769825     17.727794      25.511227    
    242000   0.9556416      17.685483      25.478597    
    243000   1.0752517      17.56379       25.551844    
    244000   1.0293166      17.152309      25.480593    
    245000   1.0314645      17.899225      25.294537    
    246000   0.97212238     17.984176      25.12688     
    247000   1.02265        18.137579      24.98313     
    248000   1.0272764      17.490465      24.965587    
    249000   1.0146123      17.384462      24.867469    
    250000   0.97401743     17.694445      24.796813    
    251000   1.0238535      18.174991      24.6944      
    252000   0.99040478     18.087759      24.591705    
    253000   0.95341238     17.730267      24.57488     
    254000   1.0246205      17.113317      24.652302    
    255000   1.0140404      17.534639      24.635591    
    256000   1.0320589      18.182187      24.349245    
    257000   1.0359909      17.857907      24.314359    
    258000   0.92222254     17.872632      24.163547    
    259000   0.9618195      17.514709      24.058377    
    260000   1.0018642      17.579229      23.731575    
    261000   1.0056148      17.407106      23.898788    
    262000   1.0182259      17.607001      23.863388    
    263000   1.0239407      18.361737      23.982418    
    264000   0.99565749     17.61651       23.969214    
    265000   0.99999575     17.472494      23.865431    
    266000   0.96213847     17.574821      23.548319    
    267000   1.0225373      18.011887      23.618557    
    268000   1.057837       17.680274      23.761917    
    269000   1.0230565      17.495071      23.535622    
    270000   1.0046894      16.989549      23.452553    
    271000   1.0007414      17.664159      23.567871    
    272000   1.0043003      17.635846      23.669863    
    273000   1.0061313      17.328947      23.705555    
    274000   0.99999561     17.29813       23.574005    
    275000   1.005489       17.331179      23.618166    
    276000   0.99368558     17.383557      23.888513    
    277000   0.9678817      17.513502      23.821292    
    278000   1.0363995      17.440704      23.856183    
    279000   0.98984162     18.481307      23.73743     
    280000   0.99593734     17.227867      23.804091    
    281000   1.0184004      17.133604      23.541868    
    282000   1.0139869      17.728817      23.682842    
    283000   0.98073492     17.720742      23.643834    
    284000   0.96845388     17.603654      23.434116    
    285000   0.99974061     17.530928      23.435458    
    286000   1.0153524      17.419707      23.108779    
    287000   0.94812974     17.143773      22.932387    
    288000   1.03           18.388179      22.936942    
    289000   1.0016982      17.525022      22.758402    
    290000   1.0315481      17.949475      22.515454    
    291000   0.97704199     17.771904      22.175769    
    292000   1.0541975      18.145996      21.910405    
    293000   1.0679962      17.730128      21.623094    
    294000   1.0408486      17.973145      21.570038    
    295000   0.99185991     17.011608      21.316055    
    296000   1.0204617      16.993115      21.174224    
    297000   1.0049467      17.466209      21.300183    
    298000   1.0376594      17.467356      21.134835    
    299000   1.0205585      17.567694      20.902787    
    300000   0.96413514     17.442801      20.666847    
    301000   1.026275       17.9107        20.533138    
    302000   0.97307944     17.326081      20.6101      
    303000   0.99697176     17.331348      20.537215    
    304000   1.0059106      16.995326      20.415572    
    305000   1.0581618      17.457543      20.388562    
    306000   0.98887839     18.13844       20.047388    
    307000   0.93580103     17.111953      20.065075    
    308000   1.0119278      17.076291      20.073573    
    309000   0.98146958     17.254613      20.155641    
    310000   1.0831543      18.041954      19.847658    
    311000   1.0722033      17.899116      19.590355    
    312000   0.9922607      17.507332      19.340297    
    313000   1.0484485      17.914726      19.234765    
    314000   0.99713855     18.432674      19.029973    
    315000   0.98126677     17.713417      18.756812    
    316000   0.93633027     17.530983      18.67135     
    317000   0.98210022     17.318885      18.561029    
    318000   0.9784836      17.936916      18.537893    
    319000   1.0037541      17.015176      18.309313    
    320000   1.0010713      17.207959      18.446749    
    321000   0.92383276     17.011829      18.328049    
    322000   0.98183264     17.467729      18.309524    
    323000   0.98394401     18.060835      18.130768    
    324000   0.99502075     17.81153       17.867476    
    325000   0.98778194     17.893747      17.709028    
    326000   0.97075365     16.943178      17.521637    
    327000   1.0074216      17.99334       17.304447    
    328000   1.0336105      17.661658      16.980433    
    329000   0.9944487      17.186268      16.609847    
    330000   0.97447051     17.192066      16.572507    
    331000   0.93949224     17.690079      16.457121    
    332000   1.0407081      17.880861      16.189846    
    333000   0.95023873     17.150517      16.203309    
    334000   0.98982377     17.433534      16.168262    
    335000   0.95974871     17.345106      16.344632    
    336000   1.0074978      17.856118      16.325485    
    337000   1.0291491      17.437496      16.315034    
    338000   0.96163641     17.586284      16.014515    
    339000   0.98447339     17.732178      16.08648     
    340000   1.0041621      18.497098      15.897506    
    341000   0.98441692     17.807136      15.937946    
    342000   0.98659367     17.893081      16.023337    
    343000   1.0772906      17.398272      15.955465    
    344000   0.99968818     17.530559      15.697003    
    345000   0.98026241     17.426561      15.70605     
    346000   1.0031613      17.732427      15.967449    
    347000   0.98871272     16.51494       16.151986    
    348000   1.0167277      17.124803      15.970001    
    349000   0.95313299     17.442814      15.915891    
    350000   1.0529581      17.848458      15.936888    
    351000   1.004189       17.518897      15.927191    
    352000   1.0010664      17.728269      15.740304    
    353000   0.98605984     17.365785      15.209032    
    354000   1.0274346      17.523106      15.110115    
    355000   1.009863       16.934533      15.025568    
    356000   0.97842688     17.267487      15.081667    
    357000   0.98443885     17.867297      15.109055    
    358000   1.0182723      16.719402      15.166582    
    359000   1.0132344      17.677652      15.192097    
    360000   0.96999959     17.005392      14.953748    
    361000   1.0506602      16.785514      14.707467    
    362000   1.0612181      17.974734      14.548942    
    363000   0.9605502      17.104571      14.284112    
    364000   0.95293487     17.512028      14.162541    
    365000   1.0555005      17.642319      13.795593    
    366000   0.98069213     17.64294       13.613413    
    367000   0.99199299     17.528625      13.314591    
    368000   1.0320278      17.610623      13.204336    
    369000   0.98299259     16.793921      13.365215    
    370000   1.00717        17.195072      13.476025    
    371000   1.0695225      16.584078      13.536906    
    372000   0.96089393     17.243127      13.659102    
    373000   0.99007094     18.034985      13.793971    
    374000   1.0519204      17.40021       13.527233    
    375000   0.9799677      17.742976      13.36194     
    376000   1.0029519      18.128444      13.046272    
    377000   1.0035352      17.907076      13.142253    
    378000   0.99668686     17.281886      13.219659    
    379000   0.98433023     16.872192      13.107083    
    380000   0.99577326     17.504282      13.027574    
    381000   1.0028879      17.274558      12.657854    
    382000   0.97900337     17.726604      12.389378    
    383000   1.0523207      17.656323      12.267037    
    384000   1.0220856      16.648579      12.414199    
    385000   0.99939921     18.366966      12.323635    
    386000   1.0503377      17.425273      12.298317    
    387000   0.97599162     17.927898      11.935826    
    388000   0.99946009     17.348243      11.745598    
    389000   0.95485466     16.797694      11.674886    
    390000   1.094181       17.279522      11.843784    
    391000   1.0293881      18.131406      11.777661    
    392000   0.95272713     17.093957      11.670165    
    393000   1.006068       17.409896      11.596372    
    394000   0.9429104      17.131302      11.765786    
    395000   0.98909391     16.875606      11.666532    
    396000   0.99745542     17.306805      11.77746     
    397000   0.96448484     17.550968      11.97502     
    398000   0.99498204     17.729927      12.036061    
    399000   0.9697959      17.469424      11.945928    
    400000   0.989692       17.070479      11.82963     
    401000   0.9900262      17.774588      11.893094    
    402000   1.0347648      17.127763      11.781027    
    403000   1.0129162      17.225738      11.690781    
    404000   0.99884584     17.69028       11.697365    
    405000   1.0033644      17.140346      11.597809    
    406000   1.0189806      17.785761      11.513044    
    407000   1.0528171      17.926522      11.372528    
    408000   1.0329366      17.645523      11.192825    
    409000   1.0761333      17.980184      10.966653    
    410000   1.0469147      17.551166      11.073891    
    411000   1.0233227      17.614375      10.617459    
    412000   1.0431272      16.854127      10.649886    
    413000   1.0153572      17.718436      10.60178     
    414000   0.99046083     17.315841      10.359364    
    415000   1.0159461      17.428328      10.084412    
    416000   1.0051         17.377737      10.250863    
    417000   1.0267697      16.631958      10.079485    
    418000   0.96968109     17.013437      9.9816806    
    419000   1.0069073      16.92249       10.015803    
    420000   1.0424868      17.311177      9.7843039    
    421000   0.9740911      17.015751      9.7500387    
    422000   1.0182064      17.296732      9.8816507    
    423000   1.0059788      17.201258      10.113998    
    424000   0.9908164      17.052897      10.059214    
    425000   1.0185495      17.390748      9.6460889    
    426000   0.98345915     17.836191      9.643135     
    427000   1.0240706      17.197608      9.6242561    
    428000   0.98058903     17.425342      9.3580968    
    429000   1.0001991      18.342695      9.4890328    
    430000   0.9780971      17.775814      9.580752     
    431000   0.99529443     16.966662      9.4200023    
    432000   1.0206932      17.498802      9.2615003    
    433000   0.98998431     16.755565      9.2530609    
    434000   0.99843515     17.183782      9.4007599    
    435000   0.97518932     17.792726      9.2370285    
    436000   0.99680879     17.541311      9.3436113    
    437000   1.015067       17.466507      9.4023677    
    438000   1.0118138      17.486622      9.2491253    
    439000   1.0242036      17.103193      9.1670575    
    440000   0.97770995     17.823509      8.975567     
    441000   1.0478664      17.986773      8.8610757    
    442000   1.0185949      17.619595      8.8197691    
    443000   1.0173481      17.402016      8.8592263    
    444000   1.0136285      16.859058      8.7059589    
    445000   1.03187        16.964982      8.4354139    
    446000   1.0004437      17.698406      8.128112     
    447000   1.0132017      17.171943      7.9502028    
    448000   1.0533361      17.484577      7.5382874    
    449000   0.9897569      17.347832      7.2480165    
Fix halt condition for fix-id 3 met on step 450000 with value 6.951132392715896 (src/fix_halt.cpp:237)
    450000   1.0309813      17.678034      6.9511324    
Loop time of 420.11 on 2 procs for 350000 steps with 693 atoms

Performance: 719810.698 tau/day, 833.114 timesteps/s
114.2% CPU use with 1 MPI tasks x 2 OpenMP threads

MPI task timing breakdown:
Section |  min time  |  avg time  |  max time  |%varavg| %total
---------------------------------------------------------------
Pair    | 74.419     | 74.419     | 74.419     |   0.0 | 17.71
Bond    | 6.0635     | 6.0635     | 6.0635     |   0.0 |  1.44
Neigh   | 324.41     | 324.41     | 324.41     |   0.0 | 77.22
Comm    | 0.1068     | 0.1068     | 0.1068     |   0.0 |  0.03
Output  | 1.0976     | 1.0976     | 1.0976     |   0.0 |  0.26
Modify  | 13.071     | 13.071     | 13.071     |   0.0 |  3.11
Other   |            | 0.943      |            |       |  0.22

Nlocal:            693 ave         693 max         693 min
Histogram: 1 0 0 0 0 0 0 0 0 0
Nghost:              0 ave           0 max           0 min
Histogram: 1 0 0 0 0 0 0 0 0 0
Neighs:         109600 ave      109600 max      109600 min
Histogram: 1 0 0 0 0 0 0 0 0 0

Total # of neighbors = 109600
Ave neighs/atom = 158.15296
Ave special neighs/atom = 1.997114
Neighbor list builds = 2826
Dangerous builds = 0

# This simulation is done
# Move onto the next one
clear
  using 2 OpenMP thread(s) per MPI task
package omp 0
using multi-threaded neighbor list subroutines
next f
jump SELF

###
# Reference paper:
# K. Kremer and G. S. Grest
# Dynamics of entangled linear polymer melts: A molecular-dynamics simulation
# J Chem Phys 92, 5057 (1990)

##################################
# MIHIR: for branched polymers
# LJ minimum first to expand and explore, then collapse
###

###
# Looping through the various N5B4 polymers to simulate,
# define variables to switch through
variable f index bb37nuc5bl6bn4d30tot100V2 bb75nuc5bl12bn4d30tot200V2 bb112nuc5bl18bn4d30tot300V2 bb150nuc5bl25bn4d30tot400V2 bb187nuc5bl31bn4d30tot500V2 bb225nuc5bl37bn4d30tot600V2 bb262nuc5bl43bn4d30tot700V2 bb300nuc5bl50bn4d30tot800V2 bb337nuc5bl56bn4d30tot900V2 bb375nuc5bl62bn4d30tot1000V2 bb412nuc5bl68bn4d30tot1100V2 bb450nuc5bl75bn4d30tot1200V2
# variable f index bb37nuc5bl6bn4d30tot100V3 bb75nuc5bl12bn4d30tot200V3 bb112nuc5bl18bn4d30tot300V3 bb150nuc5bl25bn4d30tot400V3 bb187nuc5bl31bn4d30tot500V3 bb225nuc5bl37bn4d30tot600V3 bb262nuc5bl43bn4d30tot700V3 bb300nuc5bl50bn4d30tot800V3 bb337nuc5bl56bn4d30tot900V3 bb375nuc5bl62bn4d30tot1000V3 bb412nuc5bl68bn4d30tot1100V3 bb450nuc5bl75bn4d30tot1200V3
# variable f index bb37nuc5bl6bn4d30tot100 bb75nuc5bl12bn4d30tot200 bb112nuc5bl18bn4d30tot300 bb150nuc5bl25bn4d30tot400 bb187nuc5bl31bn4d30tot500 bb225nuc5bl37bn4d30tot600 bb262nuc5bl43bn4d30tot700 bb300nuc5bl50bn4d30tot800 bb337nuc5bl56bn4d30tot900 bb375nuc5bl62bn4d30tot1000 bb412nuc5bl68bn4d30tot1100 bb450nuc5bl75bn4d30tot1200
###


###
# Box and units  (use LJ units and periodic boundaries)
###

units lj
log N5B4/trial2/logs2/$f.log
log N5B4/trial2/logs2/bb300nuc5bl50bn4d30tot800V2.log
