#atom_style bond #no stiffness
atom_style angle #with stiffness

boundary        p p p
###
# Pair interactions require lists of neighbours to be calculated
###

#neighbor 0.3 bin
neighbor 4 bin

neigh_modify every 1 delay 1 check yes
atom_modify sort 0 0
### Generate RESTART file, SPECIAL format, not a .txt file ###
### Useful if simulation crashes ###

restart 1000000 N5B4/trial2/restarts2/$f.restart
restart 1000000 N5B4/trial2/restarts2/bb300nuc5bl50bn4d30tot800V2.restart
#############################



### READ "start" data file ###

read_data N5B4/trial2/dats2/$f.dat
read_data N5B4/trial2/dats2/bb300nuc5bl50bn4d30tot800V2.dat
Reading data file ...
  orthogonal box = (-1000 -1000 -1000) to (1000 1000 1000)
  1 by 1 by 1 MPI processor grid
  reading atoms ...
  801 atoms
  scanning bonds ...
  3 = max bonds/atom
  scanning angles ...
  6 = max angles/atom
  reading bonds ...
  800 bonds
  reading angles ...
  814 angles
Finding 1-2 1-3 1-4 neighbors ...
  special bond factors lj:    0        0        0       
  special bond factors coul:  0        0        0       
     4 = max # of 1-2 neighbors
     4 = max # of 1-3 neighbors
     8 = max # of 1-4 neighbors
    12 = max # of special neighbors
  special bonds CPU = 0.004 seconds
  read_data CPU = 0.186 seconds

######################

### READ "REstart" data file ###

######################



###
# Define groups (atom type 1 is group 'all')
###
group all type 1
801 atoms in group all


###
# Dump configs - "simple dumpings"
###

###
# Dump configs + box coords
###

dump   1   all   custom   1000  N5B4/trial2/trjs2/$f.lammpstrj  id  x y z  ix iy iz
dump   1   all   custom   1000  N5B4/trial2/trjs2/bb300nuc5bl50bn4d30tot800V2.lammpstrj  id  x y z  ix iy iz
dump_modify   1   format line "%d %.5f %.5f %.5f %d %d %d"

########################################################################


###################################################################
# Stiffness term
#
# E = K * (1+cos(theta)), K>0
#
angle_style   cosine
#change this coefficient to change stiffness (e.g. 1,5,10)
angle_coeff   1 1.0
###################################################################

###################################################################
# Pair interaction between non-bonded atoms
#
#  Lennard-Jones 12-6 potential with cutoff:
#  potential E=4epsilon[ (sigma/r)^12 - (sigma/r)^6]  for r<r_cut
#
#  1.12246 = 2^(1/6) is the minimum of the potential


pair_style      lj/cut 1.12246152962189
#pair_style      lj/cut 3

#
#  pair_modify shift yes adds a constant to the potential such

#  that E(r_cut)=0. Forces remains unchanged.
#

pair_modify     shift yes

#
#  pair_coeff for lj/cut, specify 4:
#    * atom type interacting with
#    * atom type
#    * epsilon (energy units)
#    * sigma (distance units)
#

pair_coeff      1 1 1.0 1.0
###################################################################

###################################################################
# Pair interaction between non-bonded atoms
#
#  soft potential, for PUSHING apart overlapping atoms
#  potential E=A*(1 + cos(pi*r/r_c))
#
#  1.12246 = 2^(1/6) is the cut-off r_c

#pair_style     soft 1.12246152962189

#
#  pair_coeff for soft, specify 3:
#    * atom type interacting with
#    * atom type
#    * A
#
#

#pair_coeff      1 1 100.0
###################################################################

###################################################################
# Pair interaction between bonded atoms
#
# Fene potential + Lennard Jones 12-6:

#
#  E= - 0.5 K R0^2 ln[ 1- (r/R0)^2]
#     + 4epsilon[ (sigma/r)^12 - (sigma/r)^6] + epsilon
#

bond_style   fene


#
# For style fene, specify:
#   * bond type
#   * K (energy/distance^2)
#   * R0 (distance)
#   * epsilon (energy)  (LJ component)
#   * sigma (distance)  (LJ component)
#


special_bonds fene #<=== I M P O R T A N T (new command)
Finding 1-2 1-3 1-4 neighbors ...
  special bond factors lj:    0        1        1       
  special bond factors coul:  0        1        1       
     4 = max # of 1-2 neighbors
    12 = max # of special neighbors
  special bonds CPU = 0.002 seconds

bond_coeff   1   30   2   1.0   1.0


###################################################

###################################################################
# Pair interaction between bonded atoms
#
# Harmonic potential:
#
#  E= K * (R-R0)^2
#

#bond_style   harmonic

#
# For style harmonic, specify:
#   * bond type
#   * K (energy/distance^2)
#   * R0 (distance)
#

#bond_coeff   1   60.0   1.0
#bond_coeff   2   harmonic 0.1   1.0

###################################################
compute 1 all gyration
variable rog equal c_1
#compute 2 all coord/atom cutoff 1.1

#dump 2 all custom 10000 contact_number.dump id c_2


###
# Set up fixes
###
thermo_style   custom   step  temp enthalpy c_1
fix 1 all nve   ###NVE ensemble

fix 2 all   langevin   1.0 1.0 1.0  778655   ###Langevin integrator Tstart Tstop 1/friction rndseed


##### Sample thermodynamic info  (temperature, energy, pressure, etc.) #####
thermo 1000









############################################################################

###
# set timestep of integrator

timestep 0.01

###
# run integration for a number of steps
###
#run 0
#variable r equal c_1
#if "$r < 63.1" then "quit 1"

# lj potential minimum, cause molecule to explore
run 100000
Generated 0 of 0 mixed pair_coeff terms from geometric mixing rule
Last active /omp style is angle_style cosine/omp
Neighbor list info ...
  update: every = 1 steps, delay = 1 steps, check = yes
  max neighbors/atom: 2000, page size: 100000
  master list distance cutoff = 5.1224615
  ghost atom cutoff = 5.1224615
  binsize = 2.5612308, bins = 781 781 781
  1 neighbor lists, perpetual/occasional/extra = 1 0 0
  (1) pair lj/cut/omp, perpetual
      attributes: half, newton on, omp
      pair build: half/bin/newton/omp
      stencil: half/bin/3d
      bin: standard
WARNING: Communication cutoff 5.12246152962189 is shorter than a bond length based estimate of 5.455. This may lead to errors. (src/comm.cpp:723)
Per MPI rank memory allocation (min/avg/max) = 1862 | 1862 | 1862 Mbytes
   Step          Temp         Enthalpy         c_1      
         0   0              13.260982      54.043977    
      1000   1.0454493      19.143778      52.962275    
      2000   1.003427       18.833562      52.229223    
      3000   1.1060358      19.317592      51.703632    
      4000   0.96917097     19.200753      51.326497    
      5000   0.97239727     19.421587      50.861132    
      6000   1.0117587      20.099543      50.47064     
      7000   1.0135119      19.530403      50.083272    
      8000   1.0396409      20.155153      49.714638    
      9000   1.0152475      19.649022      49.441296    
     10000   0.98958383     19.576657      49.050676    
     11000   0.9805515      19.730408      48.475783    
     12000   1.0411408      19.844087      48.259482    
     13000   1.030665       20.554389      47.992558    
     14000   1.0495856      20.393515      47.697012    
     15000   1.0192506      20.203983      47.348328    
     16000   1.0002589      20.59542       47.22634     
     17000   0.97100852     20.155716      47.012686    
     18000   0.97426125     20.484223      46.857746    
     19000   0.98007617     20.105678      46.583286    
     20000   0.98059855     20.619459      46.258425    
     21000   0.98409067     20.183795      45.966163    
     22000   1.0204623      20.551422      45.816583    
     23000   1.0511119      20.348882      45.663903    
     24000   0.99566928     20.701951      45.29396     
     25000   1.0049972      20.47361       45.071545    
     26000   0.99994653     20.046495      45.246945    
     27000   0.95932045     20.110837      45.380336    
     28000   0.94809522     20.564508      45.319865    
     29000   1.0643797      20.269733      45.05138     
     30000   1.0321202      20.108446      44.77939     
     31000   0.97139655     20.716544      44.748401    
     32000   0.9691684      20.238901      44.780026    
     33000   1.0161943      20.227665      44.871964    
     34000   1.0156039      20.569151      44.833463    
     35000   1.0158494      20.261544      45.006167    
     36000   1.0384111      20.654255      44.871502    
     37000   1.0429961      20.089525      44.72075     
     38000   1.0110405      20.200016      44.49362     
     39000   1.0457992      20.458674      44.456532    
     40000   1.0104547      20.474092      44.336532    
     41000   0.98997129     19.798851      44.221374    
     42000   0.93799676     20.641135      44.181168    
     43000   0.98706594     20.274767      44.200347    
     44000   1.0133853      20.145248      44.175432    
     45000   1.04886        20.437888      44.167861    
     46000   0.96547653     19.639016      43.750102    
     47000   0.98190141     19.5709        43.521986    
     48000   0.98702901     20.050218      43.218377    
     49000   0.99988327     20.357888      43.133153    
     50000   0.99358261     20.738826      42.949011    
     51000   0.99197888     20.407916      43.047789    
     52000   0.95961979     20.343303      42.939523    
     53000   0.97028095     20.368636      42.948693    
     54000   0.98115367     20.504799      42.602736    
     55000   1.007197       20.732137      42.282747    
     56000   1.0199869      20.592591      42.192327    
     57000   1.041643       20.670652      42.08961     
     58000   0.97687223     20.29407       41.911211    
     59000   0.98881276     19.934656      41.718411    
     60000   0.99379167     19.996869      41.661297    
     61000   0.99164743     20.257345      41.672565    
     62000   0.97075389     21.152216      41.841753    
     63000   0.9823978      20.333887      41.585946    
     64000   0.95645561     19.745202      41.458848    
     65000   1.0279901      20.910164      41.440844    
     66000   0.97520612     20.125387      41.326926    
     67000   1.0151344      20.403969      41.083258    
     68000   1.0127644      20.668842      41.041763    
     69000   0.99240438     20.190414      40.887135    
     70000   0.94313954     19.824552      40.958006    
     71000   1.0152054      20.515154      40.93395     
     72000   0.96561724     20.57721       40.722636    
     73000   0.95469159     20.591115      40.934398    
     74000   0.970606       20.31388       40.651109    
     75000   0.96744167     19.992833      40.699048    
     76000   0.98957399     20.46947       40.611271    
     77000   0.99038708     20.734579      40.533142    
     78000   1.0121912      20.852442      40.568921    
     79000   1.019161       20.462475      40.736026    
     80000   0.98006875     20.000871      40.626855    
     81000   1.0166147      20.410898      40.7108      
     82000   1.0385622      20.589011      40.681596    
     83000   0.98486861     20.392889      40.4999      
     84000   1.016133       20.722539      40.550522    
     85000   0.9955069      20.663968      40.771165    
     86000   0.98373134     20.548422      40.557452    
     87000   1.0378893      20.583124      40.327281    
     88000   0.98920442     20.74547       40.361823    
     89000   0.95452239     20.472468      40.219618    
     90000   0.98101088     20.714772      40.220566    
     91000   1.0246833      20.73769       40.168753    
     92000   1.0395048      20.56773       40.088619    
     93000   0.98927795     20.473666      39.987193    
     94000   1.0092773      20.828369      40.154855    
     95000   0.95793884     20.741819      40.063786    
     96000   0.99409718     20.413222      39.938722    
     97000   0.97901608     20.710698      40.016978    
     98000   1.0263626      20.729816      40.127338    
     99000   0.9500635      20.453687      40.000134    
    100000   0.98919701     21.079829      40.035726    
Loop time of 344.992 on 2 procs for 100000 steps with 801 atoms

Performance: 250440.798 tau/day, 289.862 timesteps/s
94.7% CPU use with 1 MPI tasks x 2 OpenMP threads

MPI task timing breakdown:
Section |  min time  |  avg time  |  max time  |%varavg| %total
---------------------------------------------------------------
Pair    | 1.2245     | 1.2245     | 1.2245     |   0.0 |  0.35
Bond    | 1.7725     | 1.7725     | 1.7725     |   0.0 |  0.51
Neigh   | 337.45     | 337.45     | 337.45     |   0.0 | 97.82
Comm    | 0.029682   | 0.029682   | 0.029682   |   0.0 |  0.01
Output  | 0.30826    | 0.30826    | 0.30826    |   0.0 |  0.09
Modify  | 3.9402     | 3.9402     | 3.9402     |   0.0 |  1.14
Other   |            | 0.2618     |            |       |  0.08

Nlocal:            801 ave         801 max         801 min
Histogram: 1 0 0 0 0 0 0 0 0 0
Nghost:              0 ave           0 max           0 min
Histogram: 1 0 0 0 0 0 0 0 0 0
Neighs:           8723 ave        8723 max        8723 min
Histogram: 1 0 0 0 0 0 0 0 0 0

Total # of neighbors = 8723
Ave neighs/atom = 10.890137
Ave special neighs/atom = 1.9975031
Neighbor list builds = 1169
Dangerous builds = 0

# Replace lj potential, now collapse
pair_style      lj/cut 3

# Cutoff simul when gyration under 7
# Variable created with equal requires v_ + 'name'
fix 3 all halt 1000 v_rog < 7

run 3000000
Generated 0 of 0 mixed pair_coeff terms from geometric mixing rule
Last active /omp style is angle_style cosine/omp
Per MPI rank memory allocation (min/avg/max) = 1862 | 1862 | 1862 Mbytes
   Step          Temp         Enthalpy         c_1      
    100000   0.98919701     20.059077      40.035726    
    101000   1.0326584      19.377671      39.795056    
    102000   1.0315042      19.17538       39.873935    
    103000   0.97707084     18.972065      39.603799    
    104000   1.0070637      18.664873      39.290565    
    105000   1.0566039      19.215491      39.209714    
    106000   1.0465514      18.344178      38.955113    
    107000   1.040334       18.590481      38.844009    
    108000   0.98555737     18.847736      38.746565    
    109000   0.9719907      18.071251      38.527404    
    110000   1.0041383      18.864251      38.313877    
    111000   0.94026465     18.707987      38.278886    
    112000   0.95191094     18.070039      38.058281    
    113000   0.95533232     18.134537      37.957816    
    114000   0.9760524      18.437478      37.717665    
    115000   1.0222862      18.182138      37.653032    
    116000   1.0058615      17.861191      37.725197    
    117000   1.0282339      18.303053      37.524511    
    118000   1.0463715      17.883784      37.2198      
    119000   0.98611337     17.47027       36.825459    
    120000   1.0026928      17.679902      36.735215    
    121000   1.0203446      18.465137      36.623645    
    122000   0.9611878      17.767581      36.605487    
    123000   1.0428155      18.417044      36.508964    
    124000   1.0053438      17.754861      36.277087    
    125000   1.0526959      18.039552      36.364653    
    126000   1.0012691      18.444884      36.092411    
    127000   0.98022        18.173764      35.833287    
    128000   0.9710863      18.040864      35.753972    
    129000   0.97947271     18.534507      35.811956    
    130000   1.0215809      18.017763      35.872548    
    131000   1.0294773      17.799848      35.81695     
    132000   1.0083765      18.083837      35.556667    
    133000   0.9733828      18.440811      35.502319    
    134000   0.98136587     17.964765      35.258451    
    135000   1.0020383      17.354628      35.217454    
    136000   1.0165865      17.685835      34.862656    
    137000   1.0419181      17.721223      34.747916    
    138000   0.99252628     18.388261      34.697105    
    139000   0.92525822     17.883122      34.828507    
    140000   0.95704727     17.749492      34.591201    
    141000   0.97881975     17.968585      34.369758    
    142000   0.96578468     17.617196      34.305464    
    143000   0.99008864     18.336155      34.127751    
    144000   0.98598079     17.990682      34.133467    
    145000   0.98303872     17.954016      33.877812    
    146000   1.0520449      17.356703      33.930281    
    147000   0.99014783     17.849227      34.010809    
    148000   1.0112801      18.226876      33.887751    
    149000   1.0397653      17.470087      33.815901    
    150000   0.97729051     18.021593      33.646152    
    151000   1.0775163      18.337271      33.588471    
    152000   0.96120321     17.750926      33.425572    
    153000   0.98234904     18.190555      33.477183    
    154000   1.0016691      17.863036      33.193321    
    155000   1.0101331      17.879874      33.156649    
    156000   1.0713419      18.968398      32.727926    
    157000   1.0361996      17.568878      32.58701     
    158000   1.0113421      17.868285      32.722286    
    159000   0.97751824     17.670307      32.716089    
    160000   0.99014937     18.130283      32.548778    
    161000   1.0452162      17.823427      32.382994    
    162000   1.0359424      18.844767      32.536973    
    163000   1.0284726      18.108817      32.473568    
    164000   0.95934791     17.723548      32.488198    
    165000   0.99993166     17.536374      32.382789    
    166000   0.99581985     17.566097      32.305999    
    167000   0.95217672     18.408132      32.269139    
    168000   1.0001354      18.329177      32.189161    
    169000   0.97252257     17.842744      32.107091    
    170000   1.0072355      18.022046      32.16079     
    171000   0.96936196     17.762882      32.335525    
    172000   1.0368582      18.545376      32.025785    
    173000   0.98491175     18.556539      31.795702    
    174000   1.0205295      17.493534      31.665671    
    175000   1.0113518      17.597033      31.482497    
    176000   1.0575391      18.25131       31.332205    
    177000   0.96483534     17.948323      31.347362    
    178000   0.99805151     17.729826      31.360907    
    179000   0.99538796     17.822013      31.102986    
    180000   1.0381572      18.389784      30.9551      
    181000   0.94908939     17.809597      30.609471    
    182000   0.99494726     17.964497      30.507901    
    183000   1.0335878      17.71983       30.55012     
    184000   1.0069298      17.396262      30.464272    
    185000   0.99042197     17.694675      30.550595    
    186000   1.0420678      18.309598      30.454847    
    187000   1.0235744      18.017804      30.406078    
    188000   1.018518       17.917833      30.115632    
    189000   0.99954573     17.557241      30.165527    
    190000   0.97615779     18.040059      30.039777    
    191000   0.95346236     17.553613      29.965982    
    192000   1.0088121      17.653353      29.972902    
    193000   1.014444       18.06215       29.81698     
    194000   0.97450966     17.269202      30.079598    
    195000   1.0193825      17.625627      29.962658    
    196000   1.0022204      17.922323      29.962934    
    197000   0.95495185     17.979733      29.696055    
    198000   1.0362459      18.136602      29.510002    
    199000   1.0361918      17.947609      29.471606    
    200000   0.99950363     18.246465      29.160753    
    201000   1.0176921      17.644129      28.854988    
    202000   1.0033454      17.418584      28.69072     
    203000   1.0390387      18.113644      28.574893    
    204000   1.0258285      17.772997      28.39492     
    205000   1.0309732      17.667354      28.296629    
    206000   1.020434       18.187566      28.253633    
    207000   0.94251556     17.741739      28.097018    
    208000   0.97056606     17.571724      27.924964    
    209000   1.0052547      17.707942      27.657254    
    210000   1.0465948      17.482597      27.318891    
    211000   1.0121853      17.456087      27.231476    
    212000   0.99134571     17.685058      27.358934    
    213000   0.98800712     17.69737       27.06115     
    214000   1.0002137      18.075051      26.942632    
    215000   0.98795667     17.777597      26.768054    
    216000   0.94996161     17.957107      26.755147    
    217000   1.0365944      17.91631       26.76245     
    218000   1.0281814      17.455178      26.730549    
    219000   0.95630698     17.929468      26.742698    
    220000   1.0159998      17.589361      26.592343    
    221000   0.98357078     17.377854      26.614523    
    222000   1.0506776      17.769049      26.773429    
    223000   1.0072752      17.399219      26.834681    
    224000   0.93893791     17.063951      26.909066    
    225000   1.0229508      18.0056        27.071438    
    226000   1.0006134      18.031306      26.905687    
    227000   0.95412609     18.67381       26.730496    
    228000   1.0355255      18.423875      26.684353    
    229000   0.97811766     17.419725      26.550169    
    230000   0.97333379     18.10856       26.471909    
    231000   0.98263403     17.971052      26.52753     
    232000   1.0022519      17.339817      26.495772    
    233000   1.0348744      17.738897      26.483759    
    234000   0.99551582     18.030543      26.438621    
    235000   1.0066773      18.096652      26.181512    
    236000   0.99516744     17.412638      26.133326    
    237000   0.98774116     17.782317      25.740018    
    238000   1.0104522      17.728994      25.703738    
    239000   1.0098169      17.800315      25.63999     
    240000   1.001712       17.668224      25.496914    
    241000   1.0165374      17.79635       25.190432    
    242000   1.0501348      17.403186      24.888863    
    243000   1.0136453      18.45723       24.873386    
    244000   0.99718442     17.388186      24.857064    
    245000   0.99276214     17.538276      24.802363    
    246000   1.0346929      18.146276      24.521312    
    247000   1.0057335      17.913151      24.190267    
    248000   0.96768745     17.483478      24.0981      
    249000   1.0034973      17.273433      24.203781    
    250000   1.0130128      17.658217      24.182591    
    251000   1.0378419      17.881116      24.035866    
    252000   1.030638       17.638056      24.232247    
    253000   1.0061471      16.865754      24.077251    
    254000   1.0555706      17.148013      23.908038    
    255000   0.96159429     16.791401      23.809787    
    256000   0.98106497     17.619033      23.641657    
    257000   0.99698365     16.781646      23.237921    
    258000   1.0032996      17.563223      23.210913    
    259000   1.0032177      17.725254      23.20436     
    260000   1.0370466      17.732022      23.230044    
    261000   0.96062743     17.55599       23.321708    
    262000   0.99185249     17.250049      23.445102    
    263000   0.99920147     17.460434      23.313553    
    264000   1.0311976      17.298782      23.065033    
    265000   0.96546083     17.679576      22.828871    
    266000   0.9899412      17.329426      22.941887    
    267000   1.0450157      17.171023      23.088224    
    268000   0.9559506      17.147497      22.936695    
    269000   0.94370587     17.336079      22.965969    
    270000   1.0083842      17.491675      23.102008    
    271000   1.0114225      17.672265      22.981842    
    272000   0.95413705     17.469104      22.947963    
    273000   1.0181501      17.380381      22.979989    
    274000   1.0222163      17.740567      22.774903    
    275000   1.0060237      17.795627      22.777451    
    276000   1.0013946      17.561264      22.946556    
    277000   0.97035982     17.861352      22.901867    
    278000   0.98083492     17.449376      22.903491    
    279000   0.98891696     17.527854      22.614969    
    280000   1.0108148      17.37662       22.566215    
    281000   1.0049548      17.967464      22.513737    
    282000   0.90659441     17.478257      22.298407    
    283000   0.99569195     17.829053      22.287571    
    284000   0.98158767     18.01833       21.989042    
    285000   0.94363092     17.794204      21.984066    
    286000   0.98088459     17.222235      22.014211    
    287000   1.0141923      17.105888      21.519627    
    288000   0.98534943     17.328277      21.373558    
    289000   1.0683546      17.85297       21.12589     
    290000   1.0055124      17.768307      20.866791    
    291000   1.0459274      17.508586      20.735966    
    292000   0.95602616     17.58445       20.334518    
    293000   1.0473298      17.271545      20.155357    
    294000   1.0058601      17.439858      20.022548    
    295000   0.99171667     17.373762      20.07738     
    296000   1.0355884      17.814929      19.980376    
    297000   0.9706169      17.121084      19.887686    
    298000   1.0337108      16.877456      19.998611    
    299000   1.0102895      17.277262      19.835479    
    300000   0.9660984      16.992758      19.948057    
    301000   1.0032667      17.502443      19.926781    
    302000   0.98327678     17.690107      19.631927    
    303000   0.99753066     17.882053      19.606389    
    304000   0.96802991     17.507521      19.466566    
    305000   0.98031265     16.760312      19.589188    
    306000   1.0230725      17.907579      19.603124    
    307000   1.0437009      18.046204      19.319336    
    308000   1.0344463      17.632301      18.932134    
    309000   1.0147287      18.000087      18.848487    
    310000   1.0092701      17.423916      18.579952    
    311000   0.95946035     17.42921       18.603902    
    312000   0.99141315     17.835015      18.700848    
    313000   0.99533462     17.616589      18.400704    
    314000   1.0327512      17.685597      18.310686    
    315000   1.0222089      17.293437      17.872901    
    316000   0.97879027     17.757784      17.769124    
    317000   1.0005559      17.214355      17.679158    
    318000   0.97107428     17.54675       17.726256    
    319000   1.0026654      17.605864      17.664932    
    320000   0.99685677     17.705879      17.568108    
    321000   0.97483837     17.18519       17.356086    
    322000   1.023528       17.044264      16.935171    
    323000   1.0235668      16.703662      16.704436    
    324000   1.0288005      17.136996      16.614534    
    325000   1.0131986      17.925511      16.665218    
    326000   1.0609724      17.353319      16.639747    
    327000   1.0027493      17.590118      16.499802    
    328000   0.97230695     17.749935      16.572281    
    329000   0.94097047     17.554189      16.70155     
    330000   1.042377       17.579861      16.85374     
    331000   1.0191594      17.561177      16.835693    
    332000   1.0033641      16.790624      16.716957    
    333000   0.94022634     17.577299      16.53354     
    334000   1.0358662      17.074466      16.672374    
    335000   1.0159468      17.781353      16.635719    
    336000   0.9834665      17.532955      16.4382      
    337000   1.0395514      17.325685      16.478938    
    338000   0.94693834     17.324942      16.374579    
    339000   1.0049318      17.29674       16.240159    
    340000   0.96996243     17.484034      16.167215    
    341000   1.0005368      17.550314      15.844454    
    342000   1.0231059      16.683502      15.841784    
    343000   1.0154043      17.57285       15.883203    
    344000   0.98960587     17.634261      15.867425    
    345000   1.0039013      18.168953      15.861777    
    346000   1.0461692      17.910879      15.677191    
    347000   1.0413587      17.563329      15.674227    
    348000   1.0038561      16.809593      15.661496    
    349000   0.98766243     17.798021      15.604034    
    350000   1.0605265      17.372038      15.445751    
    351000   1.0094951      17.600327      15.389569    
    352000   0.99637671     17.36437       15.205438    
    353000   0.99495031     17.12391       14.866869    
    354000   0.9967517      17.442016      14.913678    
    355000   0.98340027     17.035575      14.832968    
    356000   0.98096517     16.880155      15.003995    
    357000   0.94833614     17.158609      14.730458    
    358000   1.0516982      17.258894      14.723441    
    359000   1.0124383      18.159103      14.828676    
    360000   0.99825099     17.339158      14.613636    
    361000   0.96091309     16.758604      14.494388    
    362000   0.99005563     17.512919      14.554979    
    363000   1.023706       17.862371      14.773294    
    364000   0.99831764     16.745494      14.685466    
    365000   0.99581638     17.26471       14.747435    
    366000   1.0313251      18.034145      14.873545    
    367000   1.0201938      17.155755      14.985061    
    368000   1.0207208      17.355247      14.843985    
    369000   1.00386        17.288889      14.68559     
    370000   0.98165869     17.668644      14.493565    
    371000   0.9449087      16.681502      14.487749    
    372000   1.0552744      18.033795      14.523561    
    373000   0.99082553     18.005131      14.294705    
    374000   1.0301798      17.473103      14.166153    
    375000   0.99124032     16.443423      14.045909    
    376000   0.94566037     17.713002      13.764035    
    377000   1.0326863      17.563318      13.720204    
    378000   0.9744673      17.225392      13.728755    
    379000   1.0478813      17.817796      13.74536     
    380000   1.0954641      17.297948      13.38682     
    381000   0.99350999     17.291466      13.402398    
    382000   1.0157484      17.532587      13.287216    
    383000   0.9589245      16.98578       13.15764     
    384000   1.0243226      17.677256      13.197337    
    385000   1.008121       17.19923       13.019995    
    386000   0.97119081     17.48068       13.071809    
    387000   0.99560641     16.790126      12.998437    
    388000   1.0048163      17.170257      12.624043    
    389000   1.0445943      16.858212      12.53703     
    390000   1.0476024      17.689888      12.425473    
    391000   1.0382562      17.420026      12.346206    
    392000   0.96518746     16.740664      12.377473    
    393000   1.0173829      17.079971      12.178463    
    394000   0.99180646     16.488597      12.059175    
    395000   1.0438259      17.612091      11.850627    
    396000   1.0413045      17.222656      11.758551    
    397000   0.97056639     17.393897      11.659434    
    398000   0.95239073     17.642092      11.652371    
    399000   0.96292148     16.488541      11.629       
    400000   0.98687546     16.80353       11.505858    
    401000   1.0279786      17.178941      11.388972    
    402000   1.01679        17.211539      11.473623    
    403000   1.0210462      17.178478      11.279815    
    404000   1.0003541      17.130544      11.082539    
    405000   0.97765931     17.310426      10.86416     
    406000   1.0144782      17.705153      10.850295    
    407000   1.0465264      16.447851      10.652643    
    408000   0.99107583     17.173621      10.554491    
    409000   1.0095654      17.463488      10.360561    
    410000   1.0270927      16.723296      10.010416    
    411000   1.0180973      17.520357      9.8775988    
    412000   0.95483034     17.340017      9.9694325    
    413000   0.9846159      17.358357      9.9665324    
    414000   0.97588405     16.735206      10.036859    
    415000   0.99245423     16.495146      10.028023    
    416000   0.98997212     17.505384      10.009614    
    417000   0.99859238     17.02673       9.8941299    
    418000   1.0147266      17.229444      9.7611574    
    419000   1.0068925      18.414838      9.7708557    
    420000   0.95131447     17.052394      9.6885525    
    421000   1.0043653      17.287338      9.6354933    
    422000   1.0094595      16.975163      9.926219     
    423000   0.9352601      17.189044      9.824392     
    424000   1.0379797      17.490575      9.7316347    
    425000   1.032588       16.412745      9.4396072    
    426000   1.0259559      17.968888      9.402504     
    427000   1.020228       17.730349      9.1763298    
    428000   0.98730474     16.549922      9.3807489    
    429000   0.97823338     17.255038      9.4324174    
    430000   1.0590506      17.303451      9.3681334    
    431000   0.98221707     17.287016      9.1249184    
    432000   0.97406238     17.380909      9.1511756    
    433000   1.0460328      16.822592      9.0299221    
    434000   1.016996       17.228491      8.7099463    
    435000   0.96667499     16.83968       8.6107075    
    436000   0.96936559     16.788203      8.4699305    
    437000   0.98985086     17.579471      8.3223743    
    438000   0.93956668     16.850503      8.2824033    
    439000   1.0240477      17.122231      8.3299273    
    440000   0.9606864      17.453241      8.1347924    
    441000   1.0440233      17.243298      7.8956889    
    442000   1.0154565      17.186357      8.0324843    
    443000   0.98447393     16.650159      7.8606894    
    444000   1.0381473      17.963001      7.6814434    
    445000   0.9873215      16.751942      7.4860085    
    446000   1.0119961      17.413472      7.0605051    
Fix halt condition for fix-id 3 met on step 447000 with value 6.64880858282045 (src/fix_halt.cpp:237)
    447000   0.97590731     17.220026      6.6488086    
Loop time of 448.947 on 2 procs for 347000 steps with 801 atoms

Performance: 667802.182 tau/day, 772.919 timesteps/s
119.9% CPU use with 1 MPI tasks x 2 OpenMP threads

MPI task timing breakdown:
Section |  min time  |  avg time  |  max time  |%varavg| %total
---------------------------------------------------------------
Pair    | 104.22     | 104.22     | 104.22     |   0.0 | 23.21
Bond    | 7.4913     | 7.4913     | 7.4913     |   0.0 |  1.67
Neigh   | 318.74     | 318.74     | 318.74     |   0.0 | 71.00
Comm    | 0.12627    | 0.12627    | 0.12627    |   0.0 |  0.03
Output  | 1.1888     | 1.1888     | 1.1888     |   0.0 |  0.26
Modify  | 16.024     | 16.024     | 16.024     |   0.0 |  3.57
Other   |            | 1.156      |            |       |  0.26

Nlocal:            801 ave         801 max         801 min
Histogram: 1 0 0 0 0 0 0 0 0 0
Nghost:              0 ave           0 max           0 min
Histogram: 1 0 0 0 0 0 0 0 0 0
Neighs:         146301 ave      146301 max      146301 min
Histogram: 1 0 0 0 0 0 0 0 0 0

Total # of neighbors = 146301
Ave neighs/atom = 182.64794
Ave special neighs/atom = 1.9975031
Neighbor list builds = 2846
Dangerous builds = 0

# This simulation is done
# Move onto the next one
clear
  using 2 OpenMP thread(s) per MPI task
package omp 0
using multi-threaded neighbor list subroutines
next f
jump SELF

###
# Reference paper:
# K. Kremer and G. S. Grest
# Dynamics of entangled linear polymer melts: A molecular-dynamics simulation
# J Chem Phys 92, 5057 (1990)

##################################
# MIHIR: for branched polymers
# LJ minimum first to expand and explore, then collapse
###

###
# Looping through the various N5B4 polymers to simulate,
# define variables to switch through
variable f index bb37nuc5bl6bn4d30tot100V2 bb75nuc5bl12bn4d30tot200V2 bb112nuc5bl18bn4d30tot300V2 bb150nuc5bl25bn4d30tot400V2 bb187nuc5bl31bn4d30tot500V2 bb225nuc5bl37bn4d30tot600V2 bb262nuc5bl43bn4d30tot700V2 bb300nuc5bl50bn4d30tot800V2 bb337nuc5bl56bn4d30tot900V2 bb375nuc5bl62bn4d30tot1000V2 bb412nuc5bl68bn4d30tot1100V2 bb450nuc5bl75bn4d30tot1200V2
# variable f index bb37nuc5bl6bn4d30tot100V3 bb75nuc5bl12bn4d30tot200V3 bb112nuc5bl18bn4d30tot300V3 bb150nuc5bl25bn4d30tot400V3 bb187nuc5bl31bn4d30tot500V3 bb225nuc5bl37bn4d30tot600V3 bb262nuc5bl43bn4d30tot700V3 bb300nuc5bl50bn4d30tot800V3 bb337nuc5bl56bn4d30tot900V3 bb375nuc5bl62bn4d30tot1000V3 bb412nuc5bl68bn4d30tot1100V3 bb450nuc5bl75bn4d30tot1200V3
# variable f index bb37nuc5bl6bn4d30tot100 bb75nuc5bl12bn4d30tot200 bb112nuc5bl18bn4d30tot300 bb150nuc5bl25bn4d30tot400 bb187nuc5bl31bn4d30tot500 bb225nuc5bl37bn4d30tot600 bb262nuc5bl43bn4d30tot700 bb300nuc5bl50bn4d30tot800 bb337nuc5bl56bn4d30tot900 bb375nuc5bl62bn4d30tot1000 bb412nuc5bl68bn4d30tot1100 bb450nuc5bl75bn4d30tot1200
###


###
# Box and units  (use LJ units and periodic boundaries)
###

units lj
log N5B4/trial2/logs2/$f.log
log N5B4/trial2/logs2/bb337nuc5bl56bn4d30tot900V2.log
