#atom_style bond #no stiffness
atom_style angle #with stiffness

boundary        p p p
###
# Pair interactions require lists of neighbours to be calculated
###

#neighbor 0.3 bin
neighbor 4 bin

neigh_modify every 1 delay 1 check yes
atom_modify sort 0 0
### Generate RESTART file, SPECIAL format, not a .txt file ###
### Useful if simulation crashes ###

restart 1000000 N5B4/trial2/restarts2/$f.restart
restart 1000000 N5B4/trial2/restarts2/bb375nuc5bl62bn4d30tot1000V2.restart
#############################



### READ "start" data file ###

read_data N5B4/trial2/dats2/$f.dat
read_data N5B4/trial2/dats2/bb375nuc5bl62bn4d30tot1000V2.dat
Reading data file ...
  orthogonal box = (-1000 -1000 -1000) to (1000 1000 1000)
  1 by 1 by 1 MPI processor grid
  reading atoms ...
  993 atoms
  scanning bonds ...
  3 = max bonds/atom
  scanning angles ...
  6 = max angles/atom
  reading bonds ...
  992 bonds
  reading angles ...
  1006 angles
Finding 1-2 1-3 1-4 neighbors ...
  special bond factors lj:    0        0        0       
  special bond factors coul:  0        0        0       
     4 = max # of 1-2 neighbors
     4 = max # of 1-3 neighbors
     8 = max # of 1-4 neighbors
    12 = max # of special neighbors
  special bonds CPU = 0.002 seconds
  read_data CPU = 0.275 seconds

######################

### READ "REstart" data file ###

######################



###
# Define groups (atom type 1 is group 'all')
###
group all type 1
993 atoms in group all


###
# Dump configs - "simple dumpings"
###

###
# Dump configs + box coords
###

dump   1   all   custom   1000  N5B4/trial2/trjs2/$f.lammpstrj  id  x y z  ix iy iz
dump   1   all   custom   1000  N5B4/trial2/trjs2/bb375nuc5bl62bn4d30tot1000V2.lammpstrj  id  x y z  ix iy iz
dump_modify   1   format line "%d %.5f %.5f %.5f %d %d %d"

########################################################################


###################################################################
# Stiffness term
#
# E = K * (1+cos(theta)), K>0
#
angle_style   cosine
#change this coefficient to change stiffness (e.g. 1,5,10)
angle_coeff   1 1.0
###################################################################

###################################################################
# Pair interaction between non-bonded atoms
#
#  Lennard-Jones 12-6 potential with cutoff:
#  potential E=4epsilon[ (sigma/r)^12 - (sigma/r)^6]  for r<r_cut
#
#  1.12246 = 2^(1/6) is the minimum of the potential


pair_style      lj/cut 1.12246152962189
#pair_style      lj/cut 3

#
#  pair_modify shift yes adds a constant to the potential such

#  that E(r_cut)=0. Forces remains unchanged.
#

pair_modify     shift yes

#
#  pair_coeff for lj/cut, specify 4:
#    * atom type interacting with
#    * atom type
#    * epsilon (energy units)
#    * sigma (distance units)
#

pair_coeff      1 1 1.0 1.0
###################################################################

###################################################################
# Pair interaction between non-bonded atoms
#
#  soft potential, for PUSHING apart overlapping atoms
#  potential E=A*(1 + cos(pi*r/r_c))
#
#  1.12246 = 2^(1/6) is the cut-off r_c

#pair_style     soft 1.12246152962189

#
#  pair_coeff for soft, specify 3:
#    * atom type interacting with
#    * atom type
#    * A
#
#

#pair_coeff      1 1 100.0
###################################################################

###################################################################
# Pair interaction between bonded atoms
#
# Fene potential + Lennard Jones 12-6:

#
#  E= - 0.5 K R0^2 ln[ 1- (r/R0)^2]
#     + 4epsilon[ (sigma/r)^12 - (sigma/r)^6] + epsilon
#

bond_style   fene


#
# For style fene, specify:
#   * bond type
#   * K (energy/distance^2)
#   * R0 (distance)
#   * epsilon (energy)  (LJ component)
#   * sigma (distance)  (LJ component)
#


special_bonds fene #<=== I M P O R T A N T (new command)
Finding 1-2 1-3 1-4 neighbors ...
  special bond factors lj:    0        1        1       
  special bond factors coul:  0        1        1       
     4 = max # of 1-2 neighbors
    12 = max # of special neighbors
  special bonds CPU = 0.002 seconds

bond_coeff   1   30   2   1.0   1.0


###################################################

###################################################################
# Pair interaction between bonded atoms
#
# Harmonic potential:
#
#  E= K * (R-R0)^2
#

#bond_style   harmonic

#
# For style harmonic, specify:
#   * bond type
#   * K (energy/distance^2)
#   * R0 (distance)
#

#bond_coeff   1   60.0   1.0
#bond_coeff   2   harmonic 0.1   1.0

###################################################
compute 1 all gyration
variable rog equal c_1
#compute 2 all coord/atom cutoff 1.1

#dump 2 all custom 10000 contact_number.dump id c_2


###
# Set up fixes
###
thermo_style   custom   step  temp enthalpy c_1
fix 1 all nve   ###NVE ensemble

fix 2 all   langevin   1.0 1.0 1.0  778655   ###Langevin integrator Tstart Tstop 1/friction rndseed


##### Sample thermodynamic info  (temperature, energy, pressure, etc.) #####
thermo 1000









############################################################################

###
# set timestep of integrator

timestep 0.01

###
# run integration for a number of steps
###
#run 0
#variable r equal c_1
#if "$r < 63.1" then "quit 1"

# lj potential minimum, cause molecule to explore
run 100000
Generated 0 of 0 mixed pair_coeff terms from geometric mixing rule
Last active /omp style is angle_style cosine/omp
Neighbor list info ...
  update: every = 1 steps, delay = 1 steps, check = yes
  max neighbors/atom: 2000, page size: 100000
  master list distance cutoff = 5.1224615
  ghost atom cutoff = 5.1224615
  binsize = 2.5612308, bins = 781 781 781
  1 neighbor lists, perpetual/occasional/extra = 1 0 0
  (1) pair lj/cut/omp, perpetual
      attributes: half, newton on, omp
      pair build: half/bin/newton/omp
      stencil: half/bin/3d
      bin: standard
WARNING: Communication cutoff 5.12246152962189 is shorter than a bond length based estimate of 5.455. This may lead to errors. (src/comm.cpp:723)
Per MPI rank memory allocation (min/avg/max) = 1862 | 1862 | 1862 Mbytes
   Step          Temp         Enthalpy         c_1      
         0   0              13.264829      76.997185    
      1000   0.98808037     18.622165      76.038558    
      2000   1.0184703      19.225659      75.512848    
      3000   0.99680285     18.987863      74.917976    
      4000   1.0175549      19.526024      74.408438    
      5000   1.0464923      19.573364      74.060822    
      6000   1.0223862      19.884867      73.614458    
      7000   1.003992       19.662166      73.239451    
      8000   0.99467407     19.712692      73.097842    
      9000   1.0175113      19.653215      72.786239    
     10000   0.9760257      20.089093      72.331672    
     11000   0.99339787     19.798053      72.179634    
     12000   0.9540284      19.681688      71.951892    
     13000   0.98686618     20.400064      71.853226    
     14000   1.000988       19.628526      71.596336    
     15000   1.037317       19.89012       71.483583    
     16000   1.0048638      19.678146      71.536039    
     17000   1.0104774      19.718105      71.155239    
     18000   1.0034045      20.558027      70.758265    
     19000   1.0127474      20.506569      70.497758    
     20000   1.057782       20.09727       70.355811    
     21000   1.0054479      20.50199       70.08884     
     22000   1.0300336      20.04482       69.908707    
     23000   0.97711939     20.150384      69.512649    
     24000   0.97039529     19.509129      69.483314    
     25000   1.0016636      19.334565      69.561994    
     26000   1.0006113      20.115662      69.412428    
     27000   1.0162356      20.166061      69.394641    
     28000   1.0305148      19.836606      69.004334    
     29000   0.97642995     20.180036      68.765961    
     30000   1.0185797      20.540376      68.504241    
     31000   1.0100511      20.369115      68.437767    
     32000   0.96387686     19.892043      68.185213    
     33000   0.99603814     20.3814        68.196345    
     34000   1.0196392      20.332637      67.896279    
     35000   0.97898955     20.43082       67.725575    
     36000   1.0240939      20.623756      67.409909    
     37000   0.99130734     20.684926      67.289201    
     38000   0.9693733      20.644853      67.281023    
     39000   0.99704064     19.993313      67.224707    
     40000   1.0163797      20.565538      66.997       
     41000   0.99612133     20.434167      67.016003    
     42000   1.0447141      20.721058      67.081722    
     43000   0.98337409     20.068853      67.039529    
     44000   1.0190765      19.96516       67.096481    
     45000   0.99515107     20.501814      67.028846    
     46000   0.9978491      20.111471      67.137552    
     47000   0.98382855     19.98409       67.058744    
     48000   1.0071674      20.245006      66.975819    
     49000   0.98734852     20.25023       66.858575    
     50000   0.9877026      20.15839       66.889145    
     51000   0.96919722     20.072606      66.681952    
     52000   1.0066365      20.266748      66.746436    
     53000   1.0187613      20.839982      66.709519    
     54000   0.99396161     20.482087      66.659937    
     55000   0.98540464     20.054894      66.641425    
     56000   1.02799        20.730777      66.462106    
     57000   0.99859161     19.517338      66.491022    
     58000   1.0165195      20.453979      66.392462    
     59000   0.99845577     20.274523      66.278429    
     60000   1.004473       20.422242      66.334805    
     61000   0.99136249     20.635066      66.163197    
     62000   1.0263765      20.486204      66.114608    
     63000   1.0051483      20.560792      66.204238    
     64000   1.0298101      20.540616      66.1187      
     65000   0.98437271     20.296243      65.799895    
     66000   1.0112696      20.789919      65.540324    
     67000   1.0079716      20.608539      65.733937    
     68000   0.99633752     20.433505      65.778525    
     69000   0.99767459     20.99677       65.866509    
     70000   1.0312852      20.451524      65.920134    
     71000   0.9359372      19.871488      65.756421    
     72000   1.0128577      20.509834      65.389844    
     73000   0.98523716     20.70771       65.357404    
     74000   1.0384255      20.019952      65.24177     
     75000   1.055104       20.572725      65.144856    
     76000   1.0432447      19.989037      64.98454     
     77000   1.0187577      20.232732      64.957209    
     78000   0.95164207     20.311847      64.84361     
     79000   0.93537761     20.463699      64.753045    
     80000   0.99710992     19.901322      64.804679    
     81000   0.991151       20.471807      64.757261    
     82000   1.0128807      20.558318      64.932658    
     83000   0.99898451     20.750473      64.808673    
     84000   0.99438855     20.16446       64.540339    
     85000   0.98082003     20.506715      64.359557    
     86000   1.0319003      20.91995       64.379102    
     87000   0.98321704     20.363453      64.277977    
     88000   1.0123443      20.141058      64.21971     
     89000   1.0029376      20.26963       64.145636    
     90000   1.0010745      20.469721      64.283386    
     91000   0.98556885     20.545582      64.280073    
     92000   0.96074565     20.301025      64.286966    
     93000   1.0118982      20.125177      64.146373    
     94000   0.93517218     20.497396      63.988015    
     95000   1.0026836      20.620752      63.791511    
     96000   0.98196043     19.925604      63.570338    
     97000   0.98650828     20.403183      63.494463    
     98000   0.98098005     20.499976      63.444562    
     99000   0.99790065     20.902802      63.233925    
    100000   1.0336402      20.636665      63.27745     
Loop time of 319.118 on 2 procs for 100000 steps with 993 atoms

Performance: 270746.366 tau/day, 313.364 timesteps/s
96.2% CPU use with 1 MPI tasks x 2 OpenMP threads

MPI task timing breakdown:
Section |  min time  |  avg time  |  max time  |%varavg| %total
---------------------------------------------------------------
Pair    | 1.799      | 1.799      | 1.799      |   0.0 |  0.56
Bond    | 2.7957     | 2.7957     | 2.7957     |   0.0 |  0.88
Neigh   | 307.48     | 307.48     | 307.48     |   0.0 | 96.35
Comm    | 0.037565   | 0.037565   | 0.037565   |   0.0 |  0.01
Output  | 0.46115    | 0.46115    | 0.46115    |   0.0 |  0.14
Modify  | 6.1562     | 6.1562     | 6.1562     |   0.0 |  1.93
Other   |            | 0.389      |            |       |  0.12

Nlocal:            993 ave         993 max         993 min
Histogram: 1 0 0 0 0 0 0 0 0 0
Nghost:              0 ave           0 max           0 min
Histogram: 1 0 0 0 0 0 0 0 0 0
Neighs:           9149 ave        9149 max        9149 min
Histogram: 1 0 0 0 0 0 0 0 0 0

Total # of neighbors = 9149
Ave neighs/atom = 9.2134945
Ave special neighs/atom = 1.9979859
Neighbor list builds = 1186
Dangerous builds = 0

# Replace lj potential, now collapse
pair_style      lj/cut 3

# Cutoff simul when gyration under 7
# Variable created with equal requires v_ + 'name'
fix 3 all halt 1000 v_rog < 7

run 3000000
Generated 0 of 0 mixed pair_coeff terms from geometric mixing rule
Last active /omp style is angle_style cosine/omp
Per MPI rank memory allocation (min/avg/max) = 1862 | 1862 | 1862 Mbytes
   Step          Temp         Enthalpy         c_1      
    100000   1.0336402      19.743841      63.27745     
    101000   1.0280307      20.278301      63.320408    
    102000   1.0265334      19.402549      63.372753    
    103000   0.99709455     19.302801      63.231562    
    104000   1.0010237      18.905042      62.908295    
    105000   0.98168166     18.984881      62.594955    
    106000   1.0186514      18.901292      62.581519    
    107000   0.99411548     19.378368      62.531822    
    108000   0.96543699     18.727859      62.441044    
    109000   0.9458553      18.603068      62.522912    
    110000   1.0379026      18.905369      62.259348    
    111000   0.9870929      18.537656      61.85583     
    112000   1.0366487      18.918436      61.482281    
    113000   0.9645216      18.275704      61.495158    
    114000   0.98050137     18.759185      61.540833    
    115000   1.0171677      18.813372      61.288565    
    116000   0.98662988     18.156464      61.034339    
    117000   0.98960844     18.284841      60.655155    
    118000   1.0113642      18.32907       60.273172    
    119000   0.99010307     17.5464        60.293935    
    120000   1.035613       18.454267      60.422831    
    121000   0.99145874     17.851385      60.287331    
    122000   1.0040159      18.172903      60.087189    
    123000   0.98422364     17.672449      59.797784    
    124000   1.0086298      17.971461      59.63243     
    125000   1.0097975      18.111584      59.572624    
    126000   0.9799252      17.400539      59.456299    
    127000   1.0062169      17.770194      59.179446    
    128000   0.9730269      18.259348      58.883025    
    129000   1.0272577      18.614051      58.807271    
    130000   1.0187769      17.7872        58.61111     
    131000   1.0045039      18.055943      58.413663    
    132000   1.0334604      18.140284      58.38346     
    133000   0.97105753     17.969826      58.386312    
    134000   0.99735432     18.201436      58.534494    
    135000   1.0424729      18.368712      58.439925    
    136000   0.98652764     18.162162      58.456916    
    137000   0.972513       17.96946       58.297939    
    138000   0.97467231     18.419795      58.232757    
    139000   0.96074645     17.902074      58.167064    
    140000   0.99270869     18.194036      58.236132    
    141000   0.93063658     17.764549      58.0791      
    142000   0.97215656     18.297127      57.969816    
    143000   1.0349694      18.183274      58.023289    
    144000   1.0303898      18.282143      57.993329    
    145000   0.96094236     18.162212      57.941667    
    146000   1.0069342      18.037289      57.79019     
    147000   1.0115988      18.436293      57.681011    
    148000   0.97961679     18.19576       57.399383    
    149000   0.9861768      18.506269      57.244685    
    150000   1.0685919      18.083962      57.071556    
    151000   0.9978228      18.170325      56.865955    
    152000   1.0224389      17.99248       56.618232    
    153000   0.98277746     18.262299      56.677244    
    154000   1.0334079      18.490914      56.600604    
    155000   1.0052423      18.691385      56.482293    
    156000   1.0229027      18.262224      56.326978    
    157000   1.0421152      18.059298      56.234901    
    158000   1.0340098      18.339337      56.09152     
    159000   0.96005069     17.689707      55.986117    
    160000   1.0027254      18.055598      55.908068    
    161000   1.0509971      17.741242      55.732399    
    162000   1.0020999      17.864206      55.940084    
    163000   1.0006363      17.668542      55.988761    
    164000   1.0282645      17.967783      56.030887    
    165000   1.0083302      18.401825      56.072714    
    166000   0.96346374     17.791982      56.057187    
    167000   0.99409769     17.975121      55.982656    
    168000   1.0033198      18.096711      55.958442    
    169000   1.0176044      17.851494      56.161699    
    170000   1.0344869      17.834839      56.228093    
    171000   1.0183838      17.615888      56.074087    
    172000   0.99290221     17.799499      55.87495     
    173000   0.99752725     17.507144      55.589305    
    174000   0.99881681     18.156734      55.269716    
    175000   0.9872568      17.721839      55.229286    
    176000   0.98997249     17.537223      55.229247    
    177000   1.0417122      17.401814      54.822088    
    178000   0.97980569     18.025199      54.718875    
    179000   1.0023113      18.549052      54.713263    
    180000   1.0333837      18.604549      54.572619    
    181000   0.96685009     17.694198      54.328321    
    182000   0.99738605     18.027092      54.418931    
    183000   1.0268702      17.770319      54.295165    
    184000   0.98036961     18.737899      53.923952    
    185000   0.94507897     18.004889      53.612545    
    186000   1.0036041      18.30717       53.753836    
    187000   1.0486263      18.290915      53.761562    
    188000   0.97567346     17.843901      53.648949    
    189000   0.96739036     17.942977      53.353828    
    190000   0.97534007     17.639402      53.21265     
    191000   0.99205612     18.243643      53.203       
    192000   1.0077845      17.958384      53.146014    
    193000   1.0393661      18.079829      53.006976    
    194000   0.9966458      17.853486      52.729639    
    195000   1.0119893      17.9           52.695329    
    196000   1.0015531      18.659048      52.661079    
    197000   1.0157747      17.952472      52.685524    
    198000   1.0005785      18.121831      52.462059    
    199000   0.99451233     17.734254      52.133789    
    200000   0.99738947     18.079358      51.992874    
    201000   1.0034223      18.229241      51.992383    
    202000   0.99576676     17.920381      51.801098    
    203000   0.97604512     17.95566       51.779755    
    204000   0.9696741      17.646751      51.743216    
    205000   1.0179438      18.047866      51.423119    
    206000   1.014103       17.68827       51.467864    
    207000   1.0284423      18.561444      51.493466    
    208000   1.0061054      17.933224      51.236501    
    209000   1.0325817      17.844908      50.898233    
    210000   0.99450737     18.045103      50.923257    
    211000   1.0552554      18.319593      50.986155    
    212000   1.0405634      17.757566      50.894861    
    213000   0.9730828      17.959041      51.019278    
    214000   0.99925875     18.438779      51.059062    
    215000   0.96559042     17.749808      50.837658    
    216000   0.95899619     17.639005      50.505079    
    217000   1.0428331      18.103417      50.449794    
    218000   1.0489889      18.197161      50.460387    
    219000   0.97407431     18.424675      50.621785    
    220000   0.95878622     18.059297      50.458349    
    221000   1.0163745      18.236836      50.555933    
    222000   1.0333767      18.084941      50.559823    
    223000   1.0404221      18.583348      50.532011    
    224000   1.027939       17.889694      50.325286    
    225000   1.013917       18.601233      50.272463    
    226000   0.98800994     18.175949      50.187886    
    227000   0.9751147      17.652176      50.044701    
    228000   0.97954419     17.782869      50.086367    
    229000   0.98885205     17.524602      49.84277     
    230000   1.0326147      18.110842      50.143524    
    231000   0.97232772     17.810844      49.987225    
    232000   0.99219362     17.924673      49.967779    
    233000   1.0498641      17.884136      49.64514     
    234000   1.0153446      17.738344      49.64383     
    235000   1.0012942      17.45627       49.411997    
    236000   1.037034       17.723823      49.529309    
    237000   0.96516458     17.231442      49.65194     
    238000   1.0161305      18.153857      49.610893    
    239000   0.98830833     18.289222      49.728838    
    240000   0.9568316      17.919623      49.511462    
    241000   1.0092105      18.026328      49.579243    
    242000   0.98953835     17.828851      49.411353    
    243000   1.0201833      17.671856      49.32314     
    244000   0.96101632     17.951626      49.306808    
    245000   0.99128867     17.914769      49.207732    
    246000   0.97243905     18.555058      49.344421    
    247000   0.97677036     18.143391      49.014614    
    248000   0.94810742     17.841394      48.875395    
    249000   0.93717409     17.729615      48.756105    
    250000   0.99530864     18.385283      48.534587    
    251000   0.95915611     18.190577      48.724465    
    252000   1.0421365      18.028994      48.807713    
    253000   0.98016901     17.885587      48.63451     
    254000   0.98072626     18.078948      48.686062    
    255000   1.0194279      18.396063      48.343759    
    256000   0.98698823     18.298895      47.918287    
    257000   0.96386401     17.109648      47.831268    
    258000   0.96483629     17.862787      47.596956    
    259000   1.0192962      17.700516      47.651853    
    260000   0.94731403     18.424641      47.606977    
    261000   0.94346785     18.019148      47.51701     
    262000   1.0019294      18.044242      47.415572    
    263000   0.98992984     17.206517      47.397042    
    264000   1.0066725      17.429225      47.465044    
    265000   1.0091902      17.832468      47.262437    
    266000   1.0257627      17.698753      47.007042    
    267000   1.0120476      17.809639      46.728375    
    268000   1.0439386      18.056599      46.681586    
    269000   0.98933723     17.331063      46.731547    
    270000   0.98659811     17.493273      46.605314    
    271000   0.99077605     17.544575      46.528106    
    272000   0.99389945     17.691844      46.395915    
    273000   1.0266517      17.776699      46.064626    
    274000   1.0267413      17.770752      46.242949    
    275000   1.0005656      18.21769       46.174175    
    276000   1.023728       18.061654      46.124156    
    277000   1.0085867      17.557869      46.190542    
    278000   1.0108457      18.5748        46.042884    
    279000   1.0195402      18.287567      45.958456    
    280000   1.0053987      17.347792      46.090259    
    281000   0.99431072     17.628675      45.98188     
    282000   0.95119342     17.441579      45.882522    
    283000   1.0244187      18.117488      45.856684    
    284000   0.99928162     17.367458      45.773154    
    285000   1.02959        18.097838      45.774853    
    286000   0.99480526     17.756761      45.754322    
    287000   0.98010057     17.634626      45.493939    
    288000   0.97551492     17.792629      45.475864    
    289000   1.0212715      18.035966      45.262312    
    290000   0.95825941     17.708384      45.093368    
    291000   1.0418298      17.766919      44.907443    
    292000   1.0391944      18.432867      44.995252    
    293000   1.000689       17.811208      44.970089    
    294000   0.96725052     17.74746       45.02683     
    295000   1.0151167      18.136989      45.131293    
    296000   1.0174027      17.312055      45.252499    
    297000   1.0276898      17.694561      45.113972    
    298000   0.99950852     17.333763      45.018531    
    299000   0.9843966      17.726153      45.147433    
    300000   1.0157606      17.59144       45.195177    
    301000   0.98453327     18.341449      45.270182    
    302000   0.99049911     17.48728       45.016939    
    303000   1.0275133      17.602488      44.677182    
    304000   0.99191473     17.646576      44.744215    
    305000   0.99467458     17.054952      44.590493    
    306000   1.0054396      17.209052      44.446077    
    307000   0.99203238     17.183787      44.2766      
    308000   0.97555894     17.017983      44.098643    
    309000   0.97930263     17.728324      43.996578    
    310000   1.03575        17.633089      43.997206    
    311000   1.0006438      17.885591      43.659385    
    312000   0.99223239     17.802349      43.63217     
    313000   0.96826404     17.931128      43.504008    
    314000   0.98249976     17.778802      43.249242    
    315000   1.0182922      18.018564      43.295811    
    316000   1.0062933      17.9201        43.044207    
    317000   0.96987581     17.696443      42.822489    
    318000   1.0237704      17.539491      42.759782    
    319000   1.0035867      17.822759      42.726449    
    320000   0.9997622      17.747187      42.517621    
    321000   1.02227        17.490406      42.288846    
    322000   1.0367864      17.450738      42.071034    
    323000   1.0286073      17.90492       41.945052    
    324000   1.0309414      18.204164      41.569363    
    325000   1.0104677      17.925247      41.666443    
    326000   1.0029046      18.342038      41.50007     
    327000   1.0312731      17.636317      41.453182    
    328000   0.98085262     18.136056      41.233759    
    329000   0.99062037     17.626851      41.10269     
    330000   0.9915699      18.104291      40.797893    
    331000   1.0103697      17.852326      40.87372     
    332000   0.9926038      17.946001      40.844917    
    333000   0.98428669     17.779741      40.677183    
    334000   1.0325428      17.769864      40.693433    
    335000   1.0216545      17.845567      40.749643    
    336000   0.96922767     17.448563      40.87326     
    337000   0.98732377     17.853249      40.882873    
    338000   0.99405059     17.93402       40.990525    
    339000   1.0028665      18.291423      40.95805     
    340000   0.97195508     17.671556      40.655543    
    341000   0.95888089     17.544912      40.413391    
    342000   1.001961       17.661764      40.20258     
    343000   0.99766729     18.340484      39.818711    
    344000   0.98319026     17.460662      39.80769     
    345000   0.99801524     18.092582      39.683765    
    346000   1.0099817      17.422164      39.71659     
    347000   0.98831088     18.0111        39.628954    
    348000   1.004482       17.854259      39.482223    
    349000   1.0171374      17.903522      39.236397    
    350000   0.98289355     17.617001      39.404988    
    351000   1.0157308      17.90565       39.486251    
    352000   1.003477       17.568015      39.355058    
    353000   1.0240968      17.769377      39.045179    
    354000   1.0427066      17.800864      39.157532    
    355000   1.0138563      17.527529      39.053829    
    356000   0.94629588     17.36906       38.963057    
    357000   1.0024365      17.610861      38.999462    
    358000   1.0504412      17.89111       38.787791    
    359000   1.003723       17.796216      38.7758      
    360000   1.0129446      17.968333      38.496347    
    361000   1.017268       17.591949      38.644548    
    362000   1.0078781      16.66844       38.500269    
    363000   1.0114118      17.694967      38.308217    
    364000   0.99337908     17.273838      38.12675     
    365000   1.014573       17.805358      38.121219    
    366000   1.017308       18.019897      38.219141    
    367000   1.0123898      17.442875      38.155569    
    368000   1.0222337      17.764235      37.900203    
    369000   1.0059587      17.830405      37.803216    
    370000   0.99621031     17.809924      37.708508    
    371000   0.96830941     17.09935       37.50074     
    372000   0.99102657     17.38744       37.236166    
    373000   1.0094323      17.855318      37.2458      
    374000   1.0072763      17.79156       37.28977     
    375000   1.0148297      18.055091      37.336274    
    376000   0.96710672     17.445736      37.074053    
    377000   0.97520464     17.722422      37.031217    
    378000   0.98906668     17.548253      36.894463    
    379000   1.0238669      16.725413      37.05831     
    380000   0.99804677     17.512419      36.929815    
    381000   1.0394934      17.694972      36.959338    
    382000   0.98770102     17.677879      36.969974    
    383000   1.0330978      17.530231      37.056618    
    384000   1.0314864      17.802671      36.819338    
    385000   1.0267032      18.380366      36.749321    
    386000   1.0224344      17.501892      36.621673    
    387000   1.0519748      17.890711      36.5842      
    388000   1.0008988      17.538234      36.50806     
    389000   1.0239         17.21599       36.683104    
    390000   0.99821159     17.439687      36.665432    
    391000   0.93557525     17.178796      36.616293    
    392000   0.98614414     17.536423      36.558993    
    393000   1.0591672      18.248608      36.334289    
    394000   1.0333176      18.049353      36.173279    
    395000   1.0494068      17.625573      36.14089     
    396000   0.98500963     17.312466      35.981895    
    397000   0.99051335     18.299834      35.847515    
    398000   1.0013402      17.70464       35.720707    
    399000   1.0667838      17.458564      35.809749    
    400000   1.0295144      17.47502       35.795364    
    401000   0.99810328     17.238381      35.890769    
    402000   0.99615153     17.62399       35.852112    
    403000   0.95986918     17.317694      35.82602     
    404000   1.0368125      17.18874       35.649843    
    405000   0.99880098     17.417377      35.799633    
    406000   1.0256685      17.563902      35.778324    
    407000   1.0026177      17.242383      35.770167    
    408000   1.0057572      17.965979      35.593472    
    409000   0.97482236     17.651114      35.475073    
    410000   1.0180668      17.982905      35.159109    
    411000   0.99354483     17.158865      35.183047    
    412000   0.95431909     17.455316      34.976383    
    413000   1.0455172      17.366563      34.908601    
    414000   1.0273665      17.730572      34.763705    
    415000   0.96836802     17.315225      34.729679    
    416000   0.96760173     17.990519      34.799266    
    417000   1.0144747      17.517687      34.959716    
    418000   1.0037716      17.837267      34.786576    
    419000   0.98800059     17.219107      34.653594    
    420000   1.0160583      17.364803      34.502862    
    421000   1.0129519      17.070806      34.555403    
    422000   0.96930918     17.609189      34.511009    
    423000   0.99953346     17.688427      34.393664    
    424000   1.0037737      17.862809      34.481849    
    425000   1.0643536      17.174558      34.489893    
    426000   1.0113425      17.592346      34.391265    
    427000   1.0015463      17.748017      34.518739    
    428000   1.0003605      17.488593      34.567677    
    429000   1.0027776      17.741453      34.400375    
    430000   1.0004306      17.979882      34.339192    
    431000   1.0242015      18.083744      34.284925    
    432000   0.98248826     17.457063      34.372599    
    433000   1.0612511      18.07698       34.43978     
    434000   0.99438448     17.649692      34.215834    
    435000   1.0029794      17.274302      34.047345    
    436000   0.99721373     17.657831      34.104232    
    437000   0.97865656     17.032993      33.936523    
    438000   1.0399651      17.525809      34.061746    
    439000   0.99862445     17.544673      34.019557    
    440000   1.0363107      17.495758      33.886412    
    441000   1.0026301      17.545953      33.960955    
    442000   1.0210742      17.546798      33.972994    
    443000   0.9284138      16.949578      33.907151    
    444000   0.9526273      16.981003      33.687752    
    445000   1.0143323      16.662323      33.655753    
    446000   0.95811715     17.181707      33.576403    
    447000   1.000091       18.297184      33.535659    
    448000   0.96033255     17.563943      33.610507    
    449000   0.989712       17.208805      33.667014    
    450000   1.0055705      17.68679       33.462838    
    451000   1.0081174      18.217313      33.305532    
    452000   0.96211001     17.21675       33.110473    
    453000   0.96707725     17.181092      33.038286    
    454000   0.97528189     17.415074      33.129584    
    455000   1.0346715      17.476251      33.010923    
    456000   1.0407728      17.406273      33.178849    
    457000   0.96160672     16.949206      33.147255    
    458000   0.96430749     16.94943       33.054445    
    459000   1.0283442      17.513846      32.96987     
    460000   1.0102151      17.242676      32.933976    
    461000   1.0131077      17.066604      32.875341    
    462000   0.97817831     17.468841      32.590887    
    463000   1.0403171      17.622192      32.74781     
    464000   0.98630764     17.6145        32.557603    
    465000   0.97966426     17.562193      32.439472    
    466000   1.0072621      17.412548      32.224878    
    467000   0.99612163     17.158954      32.379324    
    468000   0.99341401     17.020513      32.215421    
    469000   0.96880599     17.246969      32.124134    
    470000   1.0124853      16.851418      32.102476    
    471000   1.0027332      17.622231      32.051365    
    472000   0.9792569      17.911349      31.908969    
    473000   0.96523713     17.028843      31.811384    
    474000   1.042483       17.508185      31.746224    
    475000   1.0197635      18.002433      31.722475    
    476000   0.99400399     17.186903      31.810225    
    477000   1.0133931      17.470508      31.765879    
    478000   1.0180099      17.321192      31.525369    
    479000   0.98521708     17.511866      31.367574    
    480000   1.0366431      17.151854      31.257045    
    481000   1.0018851      17.300807      31.03042     
    482000   1.013309       17.536515      30.809163    
    483000   0.99404318     17.862996      30.852387    
    484000   1.0040936      17.380155      30.846049    
    485000   0.9626205      17.413003      30.739034    
    486000   1.0240752      17.138119      30.661037    
    487000   0.9915221      17.009552      30.705131    
    488000   0.97042072     17.049982      30.825563    
    489000   0.97895822     17.499068      31.073376    
    490000   1.0114045      17.410583      31.096744    
    491000   1.0006643      18.055061      31.081235    
    492000   0.9837856      17.115824      31.029515    
    493000   1.0196798      17.738415      30.986363    
    494000   0.95950737     17.581861      30.908744    
    495000   0.98656551     17.164753      30.821516    
    496000   1.0185778      17.550587      30.796043    
    497000   1.0331234      18.267878      30.566547    
    498000   1.0464961      17.657544      30.356224    
    499000   1.0136472      17.821354      30.465694    
    500000   0.94077852     17.229624      30.320763    
    501000   1.0087626      17.583132      30.380451    
    502000   1.0169794      17.911282      30.320376    
    503000   0.99932393     17.468966      30.23601     
    504000   1.0019265      17.273736      30.242326    
    505000   1.0377075      17.467837      30.499403    
    506000   1.0146716      17.341904      30.551626    
    507000   1.0287687      17.528198      30.470712    
    508000   1.0660018      17.693716      30.407706    
    509000   1.0037298      17.271101      30.079212    
    510000   1.0172199      17.175145      30.128555    
    511000   1.0151359      17.795396      29.987698    
    512000   0.98688627     17.501556      29.788134    
    513000   1.0153211      18.067315      29.867212    
    514000   1.0031898      17.199477      29.919465    
    515000   0.97345014     17.707891      29.55702     
    516000   1.010069       18.053056      29.355797    
    517000   0.9980955      17.310453      29.40931     
    518000   0.96784424     16.916796      29.389067    
    519000   1.0159126      17.391797      29.228175    
    520000   1.0207088      17.498452      29.185334    
    521000   1.0057181      17.544996      29.126352    
    522000   1.0181575      18.020998      29.174049    
    523000   1.0556716      17.689969      29.107297    
    524000   0.99041862     17.563665      29.162955    
    525000   1.0307774      17.086419      28.927388    
    526000   1.0203238      17.081512      28.819652    
    527000   0.95654298     17.84739       28.750064    
    528000   1.0508206      18.10742       28.74936     
    529000   1.023591       17.365127      28.611708    
    530000   0.9562574      17.243149      28.361425    
    531000   1.0045947      17.466278      28.187481    
    532000   1.01838        17.706516      27.922652    
    533000   1.041085       18.232462      27.924987    
    534000   0.99892919     17.349686      27.569778    
    535000   1.0347267      17.805505      27.562882    
    536000   1.0085463      17.265661      27.654781    
    537000   1.0352835      17.184081      27.879009    
    538000   0.97958805     17.453966      27.818435    
    539000   1.0170349      17.125949      27.9122      
    540000   0.98617906     17.306299      27.730747    
    541000   0.99724285     17.42684       27.822007    
    542000   1.0188868      17.665575      27.591026    
    543000   0.99020123     17.350467      27.501762    
    544000   1.0212901      17.536547      27.417896    
    545000   1.000146       17.293367      27.266885    
    546000   1.013315       17.239371      27.227831    
    547000   0.98657659     17.172456      27.225871    
    548000   1.072237       17.63351       27.164933    
    549000   1.0089961      16.667092      27.269488    
    550000   0.97991934     17.357992      27.257817    
    551000   0.98634249     17.363363      27.071693    
    552000   0.96247572     17.709705      27.049634    
    553000   0.98775947     17.492236      26.990665    
    554000   0.99466795     17.778496      26.700564    
    555000   1.0626748      17.459291      26.435734    
    556000   1.0239236      17.272858      26.275548    
    557000   0.9823109      17.572209      26.259864    
    558000   1.0216186      17.772523      26.219949    
    559000   1.0667006      17.852599      25.966369    
    560000   1.0041702      17.030652      25.912668    
    561000   1.020582       17.37675       25.567551    
    562000   0.97001065     17.480436      25.619447    
    563000   0.99809251     17.245683      25.39265     
    564000   1.0197565      17.294723      25.035721    
    565000   0.96972479     16.820882      24.930533    
    566000   0.99958759     17.353693      24.855802    
    567000   1.0081566      16.881968      24.859632    
    568000   0.96637023     16.896059      24.917272    
    569000   1.0253256      17.483824      24.818238    
    570000   0.96356635     17.013828      24.835154    
    571000   1.0230161      17.534189      24.954025    
    572000   1.0242218      17.503018      24.962804    
    573000   0.92455988     17.307108      24.925425    
    574000   1.0206797      17.528947      24.704793    
    575000   1.0417544      17.800245      24.701764    
    576000   0.9676833      17.261944      24.693591    
    577000   0.95264551     17.362117      24.93782     
    578000   1.0031208      17.821511      24.936799    
    579000   1.0340005      18.013987      24.774693    
    580000   0.99916387     17.474452      24.839834    
    581000   1.0037275      17.161631      24.632945    
    582000   0.9878261      16.85587       24.600168    
    583000   1.0214779      17.619283      24.487209    
    584000   0.99597262     17.552752      24.286054    
    585000   1.0034261      17.609125      24.158927    
    586000   1.0001579      17.384727      24.185149    
    587000   0.9792266      17.565854      24.118097    
    588000   0.96422088     16.908153      24.212508    
    589000   1.001123       18.130692      23.999391    
    590000   1.0153974      17.641697      23.883584    
    591000   0.99202686     17.762354      23.670189    
    592000   1.0096002      17.571842      23.610201    
    593000   0.98429001     17.30988       23.591247    
    594000   0.99289753     16.839398      23.804613    
    595000   1.0198329      16.58527       23.902833    
    596000   1.0261556      17.455256      23.958729    
    597000   0.98732148     17.578487      24.093941    
    598000   0.93968518     16.980708      24.039298    
    599000   1.029968       17.783976      24.062397    
    600000   1.0245972      17.97925       23.961986    
    601000   1.0270748      17.835048      24.035308    
    602000   0.96096061     17.442148      24.033108    
    603000   0.96867535     17.274464      24.13248     
    604000   1.0060887      17.400826      24.121349    
    605000   1.0041887      17.251471      24.14872     
    606000   0.98597445     17.582421      23.902132    
    607000   1.0296043      17.624656      23.539585    
    608000   1.0193917      17.085058      23.371688    
    609000   0.99170176     16.962212      23.432332    
    610000   0.99776986     17.59042       23.303105    
    611000   0.96692318     17.378974      23.142258    
    612000   1.0125242      16.922059      23.149337    
    613000   1.0121557      16.98396       23.075773    
    614000   1.0124802      17.827787      23.086607    
    615000   0.97857788     17.303564      23.091051    
    616000   0.97709215     16.700924      23.197759    
    617000   0.99542459     17.119589      22.989046    
    618000   1.0380298      17.4723        22.753101    
    619000   0.98404444     17.601301      22.557847    
    620000   1.0410619      16.742113      22.689195    
    621000   1.0105881      17.431044      22.631221    
    622000   1.0116476      17.232151      22.683421    
    623000   0.997913       17.06174       22.740496    
    624000   0.98515321     16.897285      22.648612    
    625000   1.0088655      17.185927      22.441039    
    626000   0.98035965     17.315666      22.661512    
    627000   1.0176291      17.084319      22.427647    
    628000   0.98458205     17.222937      22.453283    
    629000   1.0152073      17.104692      22.320075    
    630000   0.99464669     16.839418      22.215719    
    631000   0.96087479     17.693744      22.146767    
    632000   0.96990735     17.774457      22.034399    
    633000   0.98301729     18.065912      21.982173    
    634000   0.97409938     17.47074       21.854195    
    635000   0.99411348     17.667076      21.831477    
    636000   0.97092882     17.30328       21.684437    
    637000   0.99741512     17.379186      21.703392    
    638000   0.96440661     17.426196      21.706095    
    639000   1.0071848      17.178704      21.781444    
    640000   1.0022625      17.848754      21.605612    
    641000   1.0177564      17.525319      21.483005    
    642000   0.97384131     17.224907      21.483118    
    643000   1.0126831      17.52731       21.259051    
    644000   0.98660864     17.233748      21.12729     
    645000   1.007095       17.055832      20.931295    
    646000   1.0112915      17.197246      20.679556    
    647000   0.97546227     17.195843      20.769463    
    648000   1.0038079      17.184622      20.782315    
    649000   1.036108       17.521764      20.562907    
    650000   0.95148655     16.948708      20.466213    
    651000   1.0309284      17.111219      20.305782    
    652000   1.0306145      17.983569      20.273447    
    653000   0.9795566      17.577919      20.118611    
    654000   1.0012873      18.033022      20.141797    
    655000   0.99551881     17.295001      20.060086    
    656000   1.0409486      16.981826      19.974472    
    657000   0.99939016     17.273003      19.836624    
    658000   1.000396       17.577144      19.631152    
    659000   0.98259344     17.565746      19.411512    
    660000   1.0131573      17.615419      19.299159    
    661000   1.0226015      17.649169      19.253349    
    662000   0.96702673     17.240883      19.384611    
    663000   1.0370735      17.663471      19.331289    
    664000   0.99860223     17.794674      19.189746    
    665000   1.0267132      17.541299      19.238242    
    666000   0.99790944     17.017969      19.116088    
    667000   1.0215943      17.400038      19.145408    
    668000   0.99919883     16.830098      18.963278    
    669000   0.99850612     17.675901      18.695917    
    670000   1.0195188      17.519065      18.676863    
    671000   1.0327416      17.487298      18.547635    
    672000   0.95719804     17.10009       18.567256    
    673000   0.98132676     16.489609      18.442355    
    674000   0.99654936     17.27921       18.199455    
    675000   1.0181691      17.661112      18.065454    
    676000   1.0160896      17.151763      18.071135    
    677000   1.0105702      17.585778      17.791368    
    678000   1.0170228      17.843732      17.43926     
    679000   0.98768368     17.399993      17.304926    
    680000   1.0226078      17.342016      17.175849    
    681000   0.96320527     16.670158      17.214882    
    682000   0.94993731     16.999047      17.132759    
    683000   1.019059       17.156514      16.889183    
    684000   0.99099507     17.347646      16.925167    
    685000   0.95807901     16.426267      16.759351    
    686000   1.0194644      17.047878      16.747842    
    687000   0.9935472      17.15935       16.712879    
    688000   1.0341642      17.316917      16.515857    
    689000   0.98785785     17.278159      16.098871    
    690000   1.0077333      16.816375      15.805713    
    691000   1.0177398      16.917168      15.721105    
    692000   1.0266876      16.944047      15.716471    
    693000   1.0241216      17.701162      15.56125     
    694000   0.9874882      17.68896       15.647321    
    695000   0.98166785     17.016035      15.709895    
    696000   0.98431724     16.908075      15.476473    
    697000   1.0446567      17.387235      15.365618    
    698000   0.99897344     17.190574      15.436389    
    699000   0.96328418     17.199935      15.401924    
    700000   0.97284873     16.871984      15.308773    
    701000   0.99753524     16.63395       15.339355    
    702000   1.0295571      17.374692      15.074935    
    703000   0.97058232     17.309345      15.017632    
    704000   0.97482311     16.903957      15.221188    
    705000   1.0037854      16.962403      15.311856    
    706000   0.99128316     16.890791      15.177442    
    707000   1.0318437      17.213285      15.086241    
    708000   0.99029333     16.704999      14.827895    
    709000   1.050358       17.39367       14.790582    
    710000   0.97737748     17.11849       14.85006     
    711000   0.98101617     17.286693      14.938455    
    712000   1.0214389      17.075772      14.909127    
    713000   0.99092943     17.476211      14.81021     
    714000   1.033185       17.158389      14.658137    
    715000   0.96229319     17.048847      14.534281    
    716000   0.99305329     16.817071      14.403513    
    717000   0.97646206     17.376178      14.450488    
    718000   0.99943995     17.326098      14.437835    
    719000   0.96772231     16.528741      14.385848    
    720000   0.97287963     16.83925       14.33086     
    721000   1.0274936      16.974497      14.155648    
    722000   1.0087399      16.985599      14.285272    
    723000   0.97906564     17.112439      14.057248    
    724000   1.027703       17.501755      13.884296    
    725000   1.0597312      17.466834      13.764998    
    726000   1.0046639      17.264877      13.835126    
    727000   1.0035452      17.429366      13.826367    
    728000   0.99743477     17.015202      13.648485    
    729000   1.0569281      16.846429      13.293763    
    730000   1.0012494      16.890719      13.237817    
    731000   1.0011771      17.591227      13.337232    
    732000   1.020277       17.227363      13.389644    
    733000   0.97104224     17.545039      13.277106    
    734000   1.0162845      17.423062      13.229483    
    735000   0.98863899     17.299876      13.184545    
    736000   1.0136838      17.44065       13.006074    
    737000   0.97099507     17.517908      13.122613    
    738000   0.99103736     17.286536      13.279241    
    739000   1.0228624      17.407646      13.171942    
    740000   0.99226228     17.022183      13.154844    
    741000   1.0044872      17.246869      13.249753    
    742000   0.99381587     17.043725      13.110426    
    743000   0.98420361     16.606255      13.069963    
    744000   1.0067129      17.764376      13.085958    
    745000   0.99681943     16.977554      13.018067    
    746000   0.98321851     17.386004      12.934541    
    747000   1.0443776      17.766956      12.950414    
    748000   1.0041961      16.779866      12.775935    
    749000   1.0393308      16.96442       12.913466    
    750000   1.0264332      17.059736      12.71662     
    751000   0.96924634     17.252117      12.780291    
    752000   0.9855152      16.831647      12.807421    
    753000   1.025022       17.520164      12.775259    
    754000   0.99305315     17.00873       12.594414    
    755000   1.0048759      17.349739      12.63925     
    756000   1.0028151      17.397285      12.571757    
    757000   0.98037396     17.27212       12.459788    
    758000   1.0176041      17.008141      12.387977    
    759000   1.0015116      17.309165      12.45773     
    760000   0.95743319     17.166758      12.647375    
    761000   0.99846853     17.557539      12.505593    
    762000   1.0115899      16.991573      12.305878    
    763000   1.007114       16.97239       12.058522    
    764000   1.0105954      17.324288      11.957562    
    765000   0.97671257     17.121544      11.846997    
    766000   0.98772627     17.605184      11.98317     
    767000   0.99185574     17.422581      12.084345    
    768000   1.055543       17.10522       11.956435    
    769000   0.96436655     16.726541      11.917154    
    770000   0.96077866     16.930466      11.779278    
    771000   1.0040028      17.619043      11.639775    
    772000   0.98981829     17.371         11.786193    
    773000   1.0575733      17.421854      11.81714     
    774000   1.0225976      17.022464      11.64248     
    775000   0.99748836     17.020087      11.499439    
    776000   0.9963692      17.473676      11.677559    
    777000   1.0354587      17.648458      11.829786    
    778000   1.0194874      17.462938      11.777222    
    779000   0.99706454     17.09239       11.831921    
    780000   1.0066595      17.217573      11.589211    
    781000   1.0028834      16.795165      11.493853    
    782000   0.98594133     16.793939      11.612351    
    783000   0.96835157     17.677382      11.362533    
    784000   0.97622019     17.033292      11.274986    
    785000   1.0491823      17.545615      11.187671    
    786000   1.0524635      16.949384      11.010403    
    787000   0.9926118      16.978529      10.955592    
    788000   0.99587043     17.018804      10.947815    
    789000   0.98834853     16.981461      10.721711    
    790000   1.0057537      17.109285      10.865802    
    791000   1.0176613      16.930471      10.716039    
    792000   0.9751618      16.992081      10.582926    
    793000   0.94022486     17.139319      10.733787    
    794000   1.0026053      17.136404      10.887045    
    795000   1.0339206      16.578645      10.933077    
    796000   1.0157083      16.967745      11.032708    
    797000   1.0056083      17.800316      10.887805    
    798000   1.0162586      17.417141      10.950304    
    799000   1.0350108      17.263756      10.867644    
    800000   0.98987143     17.097441      10.718299    
    801000   0.99725126     17.039952      10.822378    
    802000   1.0025972      16.894975      10.771804    
    803000   0.96910847     17.510314      10.527633    
    804000   1.0272405      16.988237      10.497075    
    805000   1.0044438      17.01945       10.159887    
    806000   1.0033999      17.449153      10.150462    
    807000   0.99661423     17.699917      10.203554    
    808000   0.97534666     17.320257      10.250694    
    809000   0.95486469     17.283868      10.108009    
    810000   0.99089744     17.359081      9.9269023    
    811000   0.99908506     16.698836      9.9296121    
    812000   1.0122324      17.364922      9.8339488    
    813000   0.98236922     17.00621       9.7344897    
    814000   1.0039444      17.286173      9.466379     
    815000   0.99559949     17.503976      9.2511754    
    816000   0.95481395     16.866357      9.0922409    
    817000   1.0239225      17.688143      8.9988616    
    818000   0.9659085      16.877704      8.9381335    
    819000   1.0178921      17.195469      9.0046673    
    820000   1.0139803      17.109649      9.0688815    
    821000   1.0041343      17.001242      8.9062855    
    822000   0.98580515     17.804395      8.7963081    
    823000   1.0200528      17.235348      8.7003456    
    824000   0.98272105     17.359417      8.6857856    
    825000   0.99988967     16.79966       8.5614879    
    826000   1.0254903      17.388336      8.2690181    
    827000   1.0287248      17.103111      8.224747     
    828000   1.0041972      17.202541      8.0903176    
    829000   0.96681569     16.8513        7.9789056    
    830000   1.0245235      17.152455      7.7932551    
    831000   0.99447545     17.271213      7.5171709    
    832000   1.0102519      16.729012      7.2510583    
    833000   1.0129466      16.380209      7.1544029    
Fix halt condition for fix-id 3 met on step 834000 with value 6.953094304826373 (src/fix_halt.cpp:237)
    834000   0.97402729     16.834913      6.9530943    
Loop time of 1076.3 on 2 procs for 734000 steps with 993 atoms

Performance: 589218.059 tau/day, 681.965 timesteps/s
131.0% CPU use with 1 MPI tasks x 2 OpenMP threads

MPI task timing breakdown:
Section |  min time  |  avg time  |  max time  |%varavg| %total
---------------------------------------------------------------
Pair    | 332.38     | 332.38     | 332.38     |   0.0 | 30.88
Bond    | 21.315     | 21.315     | 21.315     |   0.0 |  1.98
Neigh   | 669.96     | 669.96     | 669.96     |   0.0 | 62.25
Comm    | 0.31844    | 0.31844    | 0.31844    |   0.0 |  0.03
Output  | 3.0244     | 3.0244     | 3.0244     |   0.0 |  0.28
Modify  | 46.107     | 46.107     | 46.107     |   0.0 |  4.28
Other   |            | 3.187      |            |       |  0.30

Nlocal:            993 ave         993 max         993 min
Histogram: 1 0 0 0 0 0 0 0 0 0
Nghost:              0 ave           0 max           0 min
Histogram: 1 0 0 0 0 0 0 0 0 0
Neighs:         210017 ave      210017 max      210017 min
Histogram: 1 0 0 0 0 0 0 0 0 0

Total # of neighbors = 210017
Ave neighs/atom = 211.49748
Ave special neighs/atom = 1.9979859
Neighbor list builds = 6223
Dangerous builds = 0

# This simulation is done
# Move onto the next one
clear
  using 2 OpenMP thread(s) per MPI task
package omp 0
using multi-threaded neighbor list subroutines
next f
jump SELF

###
# Reference paper:
# K. Kremer and G. S. Grest
# Dynamics of entangled linear polymer melts: A molecular-dynamics simulation
# J Chem Phys 92, 5057 (1990)

##################################
# MIHIR: for branched polymers
# LJ minimum first to expand and explore, then collapse
###

###
# Looping through the various N5B4 polymers to simulate,
# define variables to switch through
variable f index bb37nuc5bl6bn4d30tot100V2 bb75nuc5bl12bn4d30tot200V2 bb112nuc5bl18bn4d30tot300V2 bb150nuc5bl25bn4d30tot400V2 bb187nuc5bl31bn4d30tot500V2 bb225nuc5bl37bn4d30tot600V2 bb262nuc5bl43bn4d30tot700V2 bb300nuc5bl50bn4d30tot800V2 bb337nuc5bl56bn4d30tot900V2 bb375nuc5bl62bn4d30tot1000V2 bb412nuc5bl68bn4d30tot1100V2 bb450nuc5bl75bn4d30tot1200V2
# variable f index bb37nuc5bl6bn4d30tot100V3 bb75nuc5bl12bn4d30tot200V3 bb112nuc5bl18bn4d30tot300V3 bb150nuc5bl25bn4d30tot400V3 bb187nuc5bl31bn4d30tot500V3 bb225nuc5bl37bn4d30tot600V3 bb262nuc5bl43bn4d30tot700V3 bb300nuc5bl50bn4d30tot800V3 bb337nuc5bl56bn4d30tot900V3 bb375nuc5bl62bn4d30tot1000V3 bb412nuc5bl68bn4d30tot1100V3 bb450nuc5bl75bn4d30tot1200V3
# variable f index bb37nuc5bl6bn4d30tot100 bb75nuc5bl12bn4d30tot200 bb112nuc5bl18bn4d30tot300 bb150nuc5bl25bn4d30tot400 bb187nuc5bl31bn4d30tot500 bb225nuc5bl37bn4d30tot600 bb262nuc5bl43bn4d30tot700 bb300nuc5bl50bn4d30tot800 bb337nuc5bl56bn4d30tot900 bb375nuc5bl62bn4d30tot1000 bb412nuc5bl68bn4d30tot1100 bb450nuc5bl75bn4d30tot1200
###


###
# Box and units  (use LJ units and periodic boundaries)
###

units lj
log N5B4/trial2/logs2/$f.log
log N5B4/trial2/logs2/bb412nuc5bl68bn4d30tot1100V2.log
