#atom_style bond #no stiffness
atom_style angle #with stiffness

boundary        p p p
###
# Pair interactions require lists of neighbours to be calculated
###

#neighbor 0.3 bin
neighbor 4 bin

neigh_modify every 1 delay 1 check yes
atom_modify sort 0 0
### Generate RESTART file, SPECIAL format, not a .txt file ###
### Useful if simulation crashes ###

restart 1000000 N5B4/trial2/restarts2/$f.restart
restart 1000000 N5B4/trial2/restarts2/bb412nuc5bl68bn4d30tot1100V2.restart
#############################



### READ "start" data file ###

read_data N5B4/trial2/dats2/$f.dat
read_data N5B4/trial2/dats2/bb412nuc5bl68bn4d30tot1100V2.dat
Reading data file ...
  orthogonal box = (-1000 -1000 -1000) to (1000 1000 1000)
  1 by 1 by 1 MPI processor grid
  reading atoms ...
  1093 atoms
  scanning bonds ...
  3 = max bonds/atom
  scanning angles ...
  6 = max angles/atom
  reading bonds ...
  1092 bonds
  reading angles ...
  1106 angles
Finding 1-2 1-3 1-4 neighbors ...
  special bond factors lj:    0        0        0       
  special bond factors coul:  0        0        0       
     4 = max # of 1-2 neighbors
     4 = max # of 1-3 neighbors
     8 = max # of 1-4 neighbors
    12 = max # of special neighbors
  special bonds CPU = 0.003 seconds
  read_data CPU = 0.406 seconds

######################

### READ "REstart" data file ###

######################



###
# Define groups (atom type 1 is group 'all')
###
group all type 1
1093 atoms in group all


###
# Dump configs - "simple dumpings"
###

###
# Dump configs + box coords
###

dump   1   all   custom   1000  N5B4/trial2/trjs2/$f.lammpstrj  id  x y z  ix iy iz
dump   1   all   custom   1000  N5B4/trial2/trjs2/bb412nuc5bl68bn4d30tot1100V2.lammpstrj  id  x y z  ix iy iz
dump_modify   1   format line "%d %.5f %.5f %.5f %d %d %d"

########################################################################


###################################################################
# Stiffness term
#
# E = K * (1+cos(theta)), K>0
#
angle_style   cosine
#change this coefficient to change stiffness (e.g. 1,5,10)
angle_coeff   1 1.0
###################################################################

###################################################################
# Pair interaction between non-bonded atoms
#
#  Lennard-Jones 12-6 potential with cutoff:
#  potential E=4epsilon[ (sigma/r)^12 - (sigma/r)^6]  for r<r_cut
#
#  1.12246 = 2^(1/6) is the minimum of the potential


pair_style      lj/cut 1.12246152962189
#pair_style      lj/cut 3

#
#  pair_modify shift yes adds a constant to the potential such

#  that E(r_cut)=0. Forces remains unchanged.
#

pair_modify     shift yes

#
#  pair_coeff for lj/cut, specify 4:
#    * atom type interacting with
#    * atom type
#    * epsilon (energy units)
#    * sigma (distance units)
#

pair_coeff      1 1 1.0 1.0
###################################################################

###################################################################
# Pair interaction between non-bonded atoms
#
#  soft potential, for PUSHING apart overlapping atoms
#  potential E=A*(1 + cos(pi*r/r_c))
#
#  1.12246 = 2^(1/6) is the cut-off r_c

#pair_style     soft 1.12246152962189

#
#  pair_coeff for soft, specify 3:
#    * atom type interacting with
#    * atom type
#    * A
#
#

#pair_coeff      1 1 100.0
###################################################################

###################################################################
# Pair interaction between bonded atoms
#
# Fene potential + Lennard Jones 12-6:

#
#  E= - 0.5 K R0^2 ln[ 1- (r/R0)^2]
#     + 4epsilon[ (sigma/r)^12 - (sigma/r)^6] + epsilon
#

bond_style   fene


#
# For style fene, specify:
#   * bond type
#   * K (energy/distance^2)
#   * R0 (distance)
#   * epsilon (energy)  (LJ component)
#   * sigma (distance)  (LJ component)
#


special_bonds fene #<=== I M P O R T A N T (new command)
Finding 1-2 1-3 1-4 neighbors ...
  special bond factors lj:    0        1        1       
  special bond factors coul:  0        1        1       
     4 = max # of 1-2 neighbors
    12 = max # of special neighbors
  special bonds CPU = 0.001 seconds

bond_coeff   1   30   2   1.0   1.0


###################################################

###################################################################
# Pair interaction between bonded atoms
#
# Harmonic potential:
#
#  E= K * (R-R0)^2
#

#bond_style   harmonic

#
# For style harmonic, specify:
#   * bond type
#   * K (energy/distance^2)
#   * R0 (distance)
#

#bond_coeff   1   60.0   1.0
#bond_coeff   2   harmonic 0.1   1.0

###################################################
compute 1 all gyration
variable rog equal c_1
#compute 2 all coord/atom cutoff 1.1

#dump 2 all custom 10000 contact_number.dump id c_2


###
# Set up fixes
###
thermo_style   custom   step  temp enthalpy c_1
fix 1 all nve   ###NVE ensemble

fix 2 all   langevin   1.0 1.0 1.0  778655   ###Langevin integrator Tstart Tstop 1/friction rndseed


##### Sample thermodynamic info  (temperature, energy, pressure, etc.) #####
thermo 1000









############################################################################

###
# set timestep of integrator

timestep 0.01

###
# run integration for a number of steps
###
#run 0
#variable r equal c_1
#if "$r < 63.1" then "quit 1"

# lj potential minimum, cause molecule to explore
run 100000
Generated 0 of 0 mixed pair_coeff terms from geometric mixing rule
Last active /omp style is angle_style cosine/omp
Neighbor list info ...
  update: every = 1 steps, delay = 1 steps, check = yes
  max neighbors/atom: 2000, page size: 100000
  master list distance cutoff = 5.1224615
  ghost atom cutoff = 5.1224615
  binsize = 2.5612308, bins = 781 781 781
  1 neighbor lists, perpetual/occasional/extra = 1 0 0
  (1) pair lj/cut/omp, perpetual
      attributes: half, newton on, omp
      pair build: half/bin/newton/omp
      stencil: half/bin/3d
      bin: standard
WARNING: Communication cutoff 5.12246152962189 is shorter than a bond length based estimate of 5.455. This may lead to errors. (src/comm.cpp:723)
Per MPI rank memory allocation (min/avg/max) = 1862 | 1862 | 1862 Mbytes
   Step          Temp         Enthalpy         c_1      
         0   0              13.263548      65.538601    
      1000   0.97565318     18.146148      64.623521    
      2000   1.0136996      18.701426      63.755428    
      3000   0.99291146     19.09892       62.955296    
      4000   1.0034999      19.111712      62.28938     
      5000   1.0127396      19.408475      61.933558    
      6000   0.9913632      19.368153      61.576199    
      7000   1.0004909      19.597479      61.214932    
      8000   1.0297955      19.884632      60.702215    
      9000   0.97845039     19.701172      60.403127    
     10000   0.95515232     19.676751      59.934685    
     11000   1.0354244      19.573983      59.662728    
     12000   0.98428684     19.721052      59.346499    
     13000   1.0092309      20.34305       58.968505    
     14000   0.98563557     20.038504      58.609944    
     15000   0.97340556     20.213709      58.56277     
     16000   1.0077603      20.18727       58.401108    
     17000   0.99920088     20.101964      58.085706    
     18000   1.0206923      19.745242      57.723939    
     19000   0.99863607     20.388508      57.332995    
     20000   0.98017208     19.782909      57.163678    
     21000   1.0171856      19.974348      56.866739    
     22000   1.0295001      19.897694      56.209202    
     23000   0.97176149     19.681608      55.930615    
     24000   0.99820173     19.538702      55.423816    
     25000   0.99057117     20.417857      55.179409    
     26000   0.99422083     20.430329      54.860216    
     27000   0.99111297     20.607369      54.561147    
     28000   1.0060094      19.652587      54.623923    
     29000   1.0260068      19.854916      54.353012    
     30000   1.0480017      20.283133      54.006468    
     31000   1.0420693      20.442253      53.95175     
     32000   1.011664       20.281914      53.37395     
     33000   1.0118405      20.228551      53.095042    
     34000   0.97150456     20.018031      52.987303    
     35000   0.99189835     20.413756      52.882193    
     36000   0.96523487     20.21551       52.442776    
     37000   1.0299336      20.048833      52.256642    
     38000   1.0428156      20.319554      51.991609    
     39000   1.0195796      19.857573      51.731627    
     40000   1.0119389      20.478555      51.693281    
     41000   0.99943669     20.362574      51.61487     
     42000   1.0105052      20.485952      51.376128    
     43000   1.0078852      19.904955      51.188023    
     44000   1.0470729      20.751028      50.9028      
     45000   1.0714004      20.451723      50.939979    
     46000   0.99054329     20.268559      50.671663    
     47000   0.97015728     20.560382      50.627266    
     48000   1.0132095      20.284114      50.44767     
     49000   0.9515991      20.699699      50.139463    
     50000   1.0089486      20.548782      50.09322     
     51000   1.0385755      20.279722      49.989008    
     52000   0.96944454     20.549739      49.711137    
     53000   0.97799548     20.339148      49.807621    
     54000   1.0269799      19.888131      49.763985    
     55000   1.0104623      20.296439      49.672164    
     56000   1.0168414      20.272514      49.546051    
     57000   0.9779168      20.138055      49.114031    
     58000   1.0408149      20.419373      49.137111    
     59000   1.0169367      20.662031      48.972922    
     60000   1.025755       20.721483      48.742945    
     61000   1.0003584      20.096333      48.803708    
     62000   0.98972581     20.480714      48.763325    
     63000   0.98469173     20.338606      48.679692    
     64000   1.0100139      20.610526      48.375355    
     65000   1.0105587      20.42341       48.112182    
     66000   1.026992       20.568629      47.887353    
     67000   1.0152485      20.536637      47.841053    
     68000   0.97779993     19.992877      47.81704     
     69000   1.0085042      20.690832      47.78847     
     70000   0.99711802     20.504887      47.749096    
     71000   1.0346125      20.270211      47.687435    
     72000   0.99054993     20.359904      47.589667    
     73000   0.99944477     20.348594      47.431123    
     74000   0.98296204     20.381411      47.220949    
     75000   0.99046614     20.58342       46.905613    
     76000   1.0099511      20.358837      46.905998    
     77000   0.99861591     20.396275      46.739039    
     78000   0.98115588     20.454433      46.770054    
     79000   1.0729831      20.954673      46.540713    
     80000   1.0367948      20.747325      46.437583    
     81000   1.0165953      20.529561      46.328789    
     82000   1.0339289      20.338777      46.172225    
     83000   0.9822891      19.855293      46.189581    
     84000   1.0263749      20.505058      46.215413    
     85000   0.99215698     20.486837      46.105915    
     86000   0.99587072     20.700109      46.160606    
     87000   1.0392632      20.888993      46.263464    
     88000   0.98805832     20.126302      46.128043    
     89000   1.0546093      20.567593      45.912614    
     90000   1.0142745      20.542126      45.663237    
     91000   0.96540369     20.255368      45.603186    
     92000   0.99614631     20.513276      45.5203      
     93000   1.0033195      20.639052      45.612811    
     94000   1.0289207      20.602502      45.501385    
     95000   0.95162739     20.563813      45.486322    
     96000   1.0191389      20.433503      45.517048    
     97000   0.98151717     20.513329      45.484394    
     98000   1.0138582      20.469413      45.534459    
     99000   0.98323525     20.358552      45.52891     
    100000   1.002893       20.196175      45.569262    
Loop time of 371.945 on 2 procs for 100000 steps with 1093 atoms

Performance: 232292.569 tau/day, 268.857 timesteps/s
104.0% CPU use with 1 MPI tasks x 2 OpenMP threads

MPI task timing breakdown:
Section |  min time  |  avg time  |  max time  |%varavg| %total
---------------------------------------------------------------
Pair    | 1.9817     | 1.9817     | 1.9817     |   0.0 |  0.53
Bond    | 3.1132     | 3.1132     | 3.1132     |   0.0 |  0.84
Neigh   | 359.11     | 359.11     | 359.11     |   0.0 | 96.55
Comm    | 0.04583    | 0.04583    | 0.04583    |   0.0 |  0.01
Output  | 0.41738    | 0.41738    | 0.41738    |   0.0 |  0.11
Modify  | 6.815      | 6.815      | 6.815      |   0.0 |  1.83
Other   |            | 0.4575     |            |       |  0.12

Nlocal:           1093 ave        1093 max        1093 min
Histogram: 1 0 0 0 0 0 0 0 0 0
Nghost:              0 ave           0 max           0 min
Histogram: 1 0 0 0 0 0 0 0 0 0
Neighs:           9532 ave        9532 max        9532 min
Histogram: 1 0 0 0 0 0 0 0 0 0

Total # of neighbors = 9532
Ave neighs/atom = 8.7209515
Ave special neighs/atom = 1.9981702
Neighbor list builds = 1205
Dangerous builds = 0

# Replace lj potential, now collapse
pair_style      lj/cut 3

# Cutoff simul when gyration under 7
# Variable created with equal requires v_ + 'name'
fix 3 all halt 1000 v_rog < 7

run 3000000
Generated 0 of 0 mixed pair_coeff terms from geometric mixing rule
Last active /omp style is angle_style cosine/omp
Per MPI rank memory allocation (min/avg/max) = 1862 | 1862 | 1862 Mbytes
   Step          Temp         Enthalpy         c_1      
    100000   1.002893       19.303229      45.569262    
    101000   1.0099278      19.456828      45.432012    
    102000   0.97411408     19.537225      45.25066     
    103000   1.0284682      19.036363      45.038018    
    104000   1.0040969      19.666941      44.835787    
    105000   1.0139086      18.8928        44.767388    
    106000   1.0015624      19.151855      44.691743    
    107000   0.9927666      19.135954      44.518368    
    108000   0.98637305     19.320191      44.372574    
    109000   0.99735442     19.158454      44.066645    
    110000   0.95739161     18.934228      44.059005    
    111000   0.95584049     18.988713      43.921817    
    112000   1.0138387      18.645751      43.657295    
    113000   0.99522496     18.207547      43.442904    
    114000   1.0388207      19.193253      43.357759    
    115000   1.0228239      18.97971       43.028472    
    116000   1.0121451      18.555534      42.948579    
    117000   1.029703       18.551662      42.64498     
    118000   1.0394414      18.522774      42.47719     
    119000   1.0314657      18.48416       42.273204    
    120000   1.0151897      18.44546       42.167838    
    121000   0.96467654     18.891898      42.167923    
    122000   1.0207152      17.953476      42.008495    
    123000   1.0431003      18.235389      41.542395    
    124000   1.0412649      18.330389      41.440148    
    125000   0.97380171     17.774552      41.247652    
    126000   0.99701826     18.387937      41.198082    
    127000   1.0045304      18.146039      41.022098    
    128000   0.99088921     18.173565      40.914162    
    129000   1.0367042      18.171691      40.973968    
    130000   0.96902667     18.636633      40.841595    
    131000   0.9610428      17.708996      40.631995    
    132000   0.97962828     18.410861      40.447453    
    133000   1.0092456      18.030049      40.226058    
    134000   1.0336922      18.111499      40.014907    
    135000   0.95174576     17.830242      39.882313    
    136000   0.99932743     18.395871      39.596499    
    137000   1.0019703      18.06881       39.116941    
    138000   1.020999       17.45642       39.035869    
    139000   0.98087957     18.005153      38.990157    
    140000   0.97903676     17.758708      38.865424    
    141000   1.0348044      18.117299      38.786538    
    142000   1.010078       18.508406      38.845756    
    143000   1.0301761      18.189937      38.88072     
    144000   1.04222        17.953247      38.647582    
    145000   0.96217462     18.004156      38.451484    
    146000   1.0065381      18.492604      38.268871    
    147000   1.0024616      18.031877      38.276476    
    148000   0.96983732     17.774334      38.120295    
    149000   1.0379578      18.343505      37.982213    
    150000   1.0026109      17.806667      37.816837    
    151000   0.95939047     17.791598      37.74123     
    152000   0.98580692     17.782851      37.360866    
    153000   0.99072441     17.822846      37.391228    
    154000   1.0038024      17.906207      37.394864    
    155000   1.0134687      18.197343      37.292965    
    156000   1.0165868      17.973988      37.047554    
    157000   0.99096412     18.527184      36.963181    
    158000   1.0343982      17.929324      36.761653    
    159000   1.0051523      17.861521      36.43795     
    160000   1.0231577      17.915856      36.406141    
    161000   1.0045935      17.903559      36.277702    
    162000   1.0507304      17.890585      36.030431    
    163000   1.0045375      18.161032      35.89325     
    164000   1.0506826      17.507393      35.856263    
    165000   1.027766       17.718576      35.811398    
    166000   1.0088381      17.812411      35.674678    
    167000   0.98715384     17.366283      35.552789    
    168000   0.96596876     18.288092      35.446304    
    169000   0.96169366     18.055687      35.264855    
    170000   1.0434707      17.766694      35.363658    
    171000   0.98216154     18.464826      35.122397    
    172000   0.95955849     17.475633      35.084682    
    173000   0.99490293     17.789497      34.808871    
    174000   1.0139125      17.60418       34.633688    
    175000   1.0055577      17.812519      34.324745    
    176000   1.0275716      18.640662      34.151683    
    177000   0.96874577     17.910396      34.225433    
    178000   0.97383038     17.807709      34.011108    
    179000   0.98558792     17.159793      33.916656    
    180000   0.96617448     17.532284      33.697087    
    181000   1.0333639      17.863076      33.50111     
    182000   1.0130175      17.94764       33.24338     
    183000   1.0087341      17.990711      33.26036     
    184000   0.98922413     17.913178      33.070124    
    185000   1.0526164      17.794397      33.034662    
    186000   1.0605118      18.508833      32.991405    
    187000   1.0448612      17.701637      33.061774    
    188000   1.0173589      17.971347      33.011111    
    189000   0.99436017     17.749815      32.843868    
    190000   1.0177992      17.753865      32.694468    
    191000   1.0182218      18.155127      32.633276    
    192000   0.99470415     18.195098      32.546212    
    193000   1.0046502      18.047088      32.355805    
    194000   1.0044643      17.817665      32.254434    
    195000   1.0360651      17.805479      32.245122    
    196000   1.0233225      17.032879      32.013023    
    197000   1.0038643      18.326215      31.881822    
    198000   0.96096983     17.514458      31.677641    
    199000   0.98502872     17.464119      31.529202    
    200000   1.0027377      17.940615      31.342232    
    201000   1.0025516      17.667452      31.395547    
    202000   0.95902459     17.709245      31.2898      
    203000   1.023554       17.931997      31.119459    
    204000   1.0241156      17.618258      31.043878    
    205000   1.0419504      17.899221      30.856756    
    206000   1.035983       18.086756      30.795326    
    207000   1.0327064      18.440869      30.523582    
    208000   0.98669971     18.39285       30.482606    
    209000   1.0117195      18.046455      30.452282    
    210000   0.99345757     17.923444      30.364605    
    211000   0.97833731     17.919228      30.158073    
    212000   1.0022011      17.34713       30.092916    
    213000   0.99455589     17.320425      30.128904    
    214000   0.96532714     17.487663      30.095866    
    215000   1.0100661      17.902343      30.388873    
    216000   0.97572815     17.342667      30.318552    
    217000   1.0558287      17.923129      30.181873    
    218000   1.0110207      17.652898      29.939344    
    219000   0.96466814     17.782915      29.658104    
    220000   0.99461161     17.809679      29.602695    
    221000   1.0253055      17.714433      29.455337    
    222000   0.98638304     18.138296      29.290082    
    223000   1.0118329      17.705104      29.076425    
    224000   0.99919149     17.242789      29.002511    
    225000   0.99429471     17.458466      28.956688    
    226000   1.0048024      17.031714      28.615996    
    227000   1.0160225      17.993489      28.457342    
    228000   1.0102625      17.447019      28.203525    
    229000   0.9725987      17.621724      28.225898    
    230000   0.99546153     17.529126      28.146706    
    231000   1.001506       17.060306      27.962141    
    232000   1.022739       17.438951      28.141651    
    233000   0.98880149     17.376859      28.112105    
    234000   1.0196394      17.672045      27.935016    
    235000   1.0370968      17.468213      27.804021    
    236000   0.97066867     17.478205      27.785831    
    237000   1.0109866      17.448265      27.629054    
    238000   1.0161141      17.568914      27.774922    
    239000   1.0128367      17.543857      27.583437    
    240000   0.98746464     17.972727      27.666678    
    241000   1.0477093      17.396829      27.526614    
    242000   0.98258263     17.738251      27.519433    
    243000   1.0128949      17.532448      27.402474    
    244000   1.0100566      17.610857      27.422221    
    245000   1.0086569      18.248643      27.494133    
    246000   1.0040033      17.499273      27.59451     
    247000   1.0249367      17.523601      27.544638    
    248000   1.012853       18.257706      27.320775    
    249000   0.97547335     17.635666      27.012549    
    250000   1.0060681      18.14669       27.000504    
    251000   0.95088279     17.414022      27.130662    
    252000   1.0319347      18.128247      26.991746    
    253000   0.97707854     17.083621      26.826621    
    254000   1.0225889      17.757984      26.759829    
    255000   0.96051001     17.904927      26.610382    
    256000   1.0626184      17.915329      26.375824    
    257000   1.0170019      18.015278      26.129605    
    258000   0.96476357     17.068479      25.858627    
    259000   1.0022103      17.628055      25.690393    
    260000   0.97566529     17.59933       25.695355    
    261000   0.99649296     17.660816      25.761882    
    262000   0.96075433     17.309955      25.922814    
    263000   0.99056939     17.028248      25.783527    
    264000   0.97874512     17.575784      25.692588    
    265000   0.99269669     17.5326        25.536698    
    266000   0.98797975     17.516954      25.317196    
    267000   1.0053548      17.200318      24.976165    
    268000   0.96121422     17.249079      24.950935    
    269000   1.0262911      17.214071      25.177485    
    270000   1.0073261      17.818245      25.279779    
    271000   1.0142759      17.672298      25.255518    
    272000   1.0434719      17.411703      25.205419    
    273000   0.98470713     17.407662      25.227347    
    274000   1.0144149      17.213265      25.11677     
    275000   0.98889236     17.757889      24.95135     
    276000   0.99902184     17.774929      24.7148      
    277000   0.96712232     18.210914      24.821576    
    278000   1.0009901      17.827951      24.858098    
    279000   0.99902577     17.143249      24.715711    
    280000   1.0031106      18.006908      24.708776    
    281000   1.0313135      17.629802      24.703668    
    282000   1.0136205      17.905418      24.620746    
    283000   1.0125663      17.583701      24.757338    
    284000   1.0130503      17.673833      24.896426    
    285000   1.0070578      17.593363      24.700696    
    286000   0.98189194     17.441534      24.643583    
    287000   0.99401908     17.332215      24.362573    
    288000   0.99048267     16.982458      24.54175     
    289000   1.0149692      17.020132      24.572062    
    290000   1.0076944      17.881026      24.613755    
    291000   1.0195819      17.497672      24.343306    
    292000   0.96823111     17.253265      24.315508    
    293000   1.0296877      16.841641      24.235668    
    294000   0.97867397     17.423958      24.132191    
    295000   0.99663585     17.162541      24.153244    
    296000   0.9807811      17.19217       23.906517    
    297000   0.96523205     17.548075      23.98824     
    298000   1.0149986      17.462122      23.785242    
    299000   1.0353528      17.64107       23.856151    
    300000   0.98312735     17.114899      23.644899    
    301000   1.0469674      17.547448      23.609526    
    302000   0.98788656     17.271669      23.550322    
    303000   1.0198115      17.366746      23.737764    
    304000   1.0210016      17.34946       23.463697    
    305000   1.0012827      17.117476      23.452565    
    306000   1.0301483      17.085067      23.540363    
    307000   0.95503865     17.062937      23.415758    
    308000   0.98439159     17.756064      23.268237    
    309000   0.95965465     17.270738      23.10634     
    310000   0.99977083     17.364653      23.193301    
    311000   0.97686959     16.971158      23.277097    
    312000   0.93698638     17.230173      23.2224      
    313000   1.0133716      17.355091      22.952037    
    314000   0.97623318     17.449326      22.724836    
    315000   1.0103937      17.44047       22.505339    
    316000   0.98790048     17.48815       22.454294    
    317000   0.97438072     17.587042      22.822545    
    318000   1.0531802      17.272825      22.627714    
    319000   0.96773093     17.297691      22.690925    
    320000   1.0147904      17.154928      22.514451    
    321000   1.0014327      17.691369      22.320357    
    322000   0.99523543     16.939501      22.32232     
    323000   1.0335773      16.744324      22.302399    
    324000   1.0341471      17.112368      22.163023    
    325000   0.98698906     17.639389      22.21124     
    326000   1.0331198      17.092491      22.270651    
    327000   1.03529        17.198715      21.894412    
    328000   0.97990575     17.064331      21.99251     
    329000   1.0173899      17.272428      21.921206    
    330000   0.97854488     16.517326      21.936563    
    331000   0.94327928     17.100222      21.994735    
    332000   0.9737139      17.370728      22.042909    
    333000   1.012027       17.655636      21.88083     
    334000   0.99745131     17.251824      21.842978    
    335000   1.0230337      17.643191      21.716024    
    336000   0.95805635     18.005722      21.734158    
    337000   1.0155486      17.474472      21.779153    
    338000   1.0015211      17.647808      21.997866    
    339000   1.0090939      17.146887      21.961684    
    340000   0.96531806     17.119426      21.884897    
    341000   0.99544353     17.173523      21.858185    
    342000   0.99644075     17.564267      21.812238    
    343000   1.0317365      17.339114      21.790637    
    344000   1.0236201      17.173367      21.731573    
    345000   0.95818874     17.438045      21.681006    
    346000   1.0042421      17.32141       21.540457    
    347000   1.036386       17.120766      21.407457    
    348000   1.0208057      18.064929      21.343896    
    349000   1.0120045      17.525576      21.110954    
    350000   1.0033728      17.172371      21.325419    
    351000   1.0119188      17.104463      21.263018    
    352000   1.0151617      17.782379      21.107125    
    353000   0.96494384     16.635147      21.12258     
    354000   1.0439834      17.56318       21.016653    
    355000   1.0456277      17.701927      20.777275    
    356000   0.99237845     17.235138      20.760283    
    357000   0.99433661     17.368204      20.731449    
    358000   0.97966969     17.146454      20.657808    
    359000   0.96159167     16.830774      20.717298    
    360000   1.0254017      17.276468      20.761919    
    361000   1.0347897      17.203084      20.852338    
    362000   0.98129086     17.060082      20.513582    
    363000   0.94582059     16.991849      20.527282    
    364000   1.0270299      17.55003       20.314417    
    365000   0.98072322     17.518823      20.313673    
    366000   1.0299973      17.287527      20.289178    
    367000   1.0022002      17.231331      20.445343    
    368000   0.99662037     16.409051      20.203406    
    369000   1.0221858      17.072528      20.104781    
    370000   1.0079838      16.995982      19.720377    
    371000   0.99236622     17.79434       19.571472    
    372000   1.0012366      17.064306      19.341326    
    373000   0.994568       17.789949      19.121338    
    374000   0.99885213     16.69859       19.111105    
    375000   1.0141943      17.686655      18.906979    
    376000   1.0072008      17.049756      18.803271    
    377000   0.97332351     16.530738      18.78307     
    378000   1.0222688      17.131207      18.475864    
    379000   0.97012244     16.839279      18.223751    
    380000   1.0076453      16.992969      18.18386     
    381000   1.0682085      17.30747       18.352285    
    382000   0.98055087     17.131371      18.222943    
    383000   0.99974192     16.846601      18.188417    
    384000   0.97181709     16.906066      18.390124    
    385000   1.0538743      17.487756      18.324944    
    386000   0.97737619     17.281307      18.237319    
    387000   0.99178679     17.026943      18.344973    
    388000   1.021659       17.148454      18.272885    
    389000   1.0028224      17.703479      18.436782    
    390000   1.0117367      17.417805      18.468595    
    391000   1.05504        17.624789      18.286648    
    392000   1.023125       17.050212      18.261281    
    393000   0.99046642     17.057291      18.008744    
    394000   1.0232477      17.088994      17.787349    
    395000   0.99401177     17.053692      17.837417    
    396000   0.97545144     17.531424      17.77459     
    397000   1.0307057      17.778313      17.831391    
    398000   1.0053723      17.549586      17.766907    
    399000   0.99366698     17.58389       17.56618     
    400000   0.99621909     17.270779      17.640288    
    401000   1.0356256      17.267288      17.676581    
    402000   0.98684907     17.331807      17.763726    
    403000   1.0124633      17.30454       17.916668    
    404000   0.99630125     16.842477      17.886045    
    405000   0.9110258      16.212081      17.75069     
    406000   1.0227112      16.704046      17.781174    
    407000   0.96756551     17.164454      17.921879    
    408000   0.98098088     17.558673      17.954167    
    409000   1.0024019      17.140382      18.037472    
    410000   1.0279485      17.107884      17.968385    
    411000   1.0300906      17.49026       17.970653    
    412000   1.0395583      17.443428      17.959855    
    413000   0.97608896     17.715623      17.845136    
    414000   1.0061769      17.063788      17.815106    
    415000   1.0060852      17.179869      17.672802    
    416000   0.9708723      16.868294      17.391276    
    417000   1.0156381      17.162596      17.388968    
    418000   0.97854419     17.038997      17.206529    
    419000   1.0120142      17.362957      17.271502    
    420000   0.98996019     16.971576      17.245476    
    421000   0.95728553     16.930255      17.166313    
    422000   1.0139979      17.290855      17.128741    
    423000   0.97197891     17.703206      17.09153     
    424000   1.0158058      16.951037      17.033132    
    425000   0.97899019     17.2192        17.084229    
    426000   0.97032166     16.660652      17.055515    
    427000   1.0176776      17.09048       16.913779    
    428000   0.99456407     16.72688       17.03543     
    429000   0.96468668     17.14066       16.681879    
    430000   1.0057787      17.104856      16.58063     
    431000   1.0133642      16.991001      16.45086     
    432000   1.0075502      16.799227      16.196139    
    433000   1.0044292      16.898539      16.465843    
    434000   0.97517704     16.496218      16.414766    
    435000   1.0039652      17.169729      16.223263    
    436000   1.0041807      16.86175       16.153226    
    437000   0.98415267     17.075694      16.007126    
    438000   1.0809869      17.403981      16.080496    
    439000   0.97421478     17.084533      16.006309    
    440000   1.033203       17.862534      16.021431    
    441000   1.0042233      16.914261      15.880255    
    442000   0.95097311     16.702663      15.983899    
    443000   1.0142326      16.898163      15.81214     
    444000   1.0390273      16.835512      15.60988     
    445000   0.99972189     17.26132       15.495105    
    446000   1.0082063      17.401108      15.61176     
    447000   0.96921894     17.445631      15.451775    
    448000   0.99304518     16.626095      15.331568    
    449000   1.0516202      17.516471      15.24188     
    450000   0.98812958     17.222998      15.268814    
    451000   1.0570194      17.625708      15.165163    
    452000   0.99540259     17.18549       15.234572    
    453000   1.0422232      17.429637      15.312047    
    454000   0.99809041     17.524844      15.138812    
    455000   1.0152485      17.334278      15.06933     
    456000   1.0210272      16.917283      15.096733    
    457000   0.98722889     17.27982       14.925312    
    458000   0.96803286     17.068155      14.781287    
    459000   1.0263854      17.208188      14.539495    
    460000   1.010544       16.630844      14.318596    
    461000   0.98115282     16.914892      14.319233    
    462000   1.0262741      17.324377      14.48142     
    463000   0.9674416      17.054483      14.290273    
    464000   0.96408905     17.22119       14.432096    
    465000   0.93313143     16.790444      14.618504    
    466000   0.97197878     16.953231      14.634076    
    467000   0.98443351     16.889         14.621371    
    468000   0.99872955     17.334572      14.45371     
    469000   1.002354       16.726516      14.355627    
    470000   0.99222857     17.463981      14.160135    
    471000   0.94794349     17.350586      14.038295    
    472000   1.0345618      18.247929      13.895973    
    473000   1.0682933      16.973278      13.958536    
    474000   0.98197846     17.092059      13.728747    
    475000   0.99345971     17.034017      13.804732    
    476000   1.0186163      17.37228       13.775184    
    477000   0.9862594      16.80643       13.650949    
    478000   0.99046406     16.625295      13.481168    
    479000   1.0313575      16.717619      13.495952    
    480000   0.9839117      17.441542      13.545053    
    481000   1.0107589      16.788471      13.638168    
    482000   1.0090399      17.091137      13.500891    
    483000   0.98039245     16.909837      13.348668    
    484000   1.011206       16.821093      13.146276    
    485000   1.0091049      16.445611      13.10711     
    486000   0.99892356     16.974619      13.003625    
    487000   0.99868871     17.420295      12.888412    
    488000   0.97685577     16.769192      12.852664    
    489000   0.98810388     17.142607      12.603505    
    490000   0.9695458      16.736837      12.583118    
    491000   0.97955864     17.113658      12.466812    
    492000   0.99523361     16.951441      12.341625    
    493000   1.0229108      17.248696      12.418114    
    494000   1.0220344      17.349218      12.2205      
    495000   0.96229619     17.203802      12.203691    
    496000   1.0663724      17.478176      12.104109    
    497000   1.0084553      17.28874       12.067716    
    498000   1.0031011      17.529581      12.078089    
    499000   1.017493       17.136743      12.020338    
    500000   0.98756686     17.398777      12.041793    
    501000   0.98840264     17.341892      12.023446    
    502000   1.0110695      17.063478      12.00322     
    503000   1.0387557      16.936792      11.976038    
    504000   1.0182531      17.530256      11.828767    
    505000   1.007119       17.242839      11.632629    
    506000   0.99486434     16.661317      11.536328    
    507000   1.0276406      17.334113      11.579325    
    508000   0.9935362      17.204436      11.356904    
    509000   0.998462       16.778402      11.215337    
    510000   0.991934       16.998679      11.217573    
    511000   1.0177806      16.581426      11.010813    
    512000   1.0158042      16.951503      10.659387    
    513000   1.0240698      17.199399      10.555303    
    514000   0.99665753     17.005959      10.488348    
    515000   0.99874991     16.866491      10.449241    
    516000   1.0003139      16.732242      10.607403    
    517000   1.0292982      17.116187      10.633366    
    518000   0.98055202     16.707482      10.541981    
    519000   1.0033565      16.47379       10.435902    
    520000   0.9817187      17.298724      10.218438    
    521000   1.0037085      17.024748      10.242862    
    522000   1.0098977      16.6985        10.224337    
    523000   0.92991162     16.997607      10.353361    
    524000   1.049826       16.825021      10.239541    
    525000   1.0143733      16.34028       10.200023    
    526000   0.97204548     16.996205      10.265803    
    527000   1.0168327      16.413329      10.271192    
    528000   0.97960603     16.48056       10.153379    
    529000   0.9855934      17.150183      10.107523    
    530000   0.95347822     17.125711      10.357435    
    531000   1.0057229      16.496113      10.400811    
    532000   0.98162629     17.464946      10.137529    
    533000   0.9628164      16.788564      9.9932432    
    534000   0.95147409     17.295641      10.0389      
    535000   1.022598       16.526149      9.8417565    
    536000   1.0144273      16.863141      9.7163576    
    537000   0.96927006     16.856839      9.7200559    
    538000   0.98404273     17.28231       9.7292763    
    539000   1.0135624      16.969093      9.5814979    
    540000   0.93473707     17.240821      9.3581038    
    541000   0.98520458     16.798871      9.1732171    
    542000   1.0006675      17.317138      9.1237979    
    543000   1.0134319      17.156375      8.9997732    
    544000   1.0087925      16.61527       8.9197254    
    545000   1.0138895      16.706152      8.9425704    
    546000   1.001468       17.427744      8.9708154    
    547000   0.97833535     16.9308        8.9167749    
    548000   1.0192139      17.208777      8.6233585    
    549000   1.0229518      16.907737      8.5763988    
    550000   1.0367401      17.129535      8.5646169    
    551000   1.0106565      17.177018      8.5228053    
    552000   0.99607855     17.135706      8.241566     
    553000   0.98490351     17.203657      8.2852837    
    554000   1.0403274      17.865375      8.2942646    
    555000   1.0077262      17.031511      8.0897256    
    556000   0.97057503     17.276482      7.8010702    
    557000   0.94694506     17.605135      7.7490508    
    558000   0.99938531     17.185468      7.7494558    
    559000   0.99285505     16.435682      7.6375961    
    560000   0.96704141     17.257518      7.4581312    
    561000   1.0175873      17.025842      7.1710166    
    562000   0.98040893     17.261481      7.1386616    
    563000   0.96580339     17.016636      7.1206652    
Fix halt condition for fix-id 3 met on step 564000 with value 6.920828651564425 (src/fix_halt.cpp:237)
    564000   1.0187988      17.190976      6.9208287    
Loop time of 681.96 on 2 procs for 464000 steps with 1093 atoms

Performance: 587858.238 tau/day, 680.391 timesteps/s
137.7% CPU use with 1 MPI tasks x 2 OpenMP threads

MPI task timing breakdown:
Section |  min time  |  avg time  |  max time  |%varavg| %total
---------------------------------------------------------------
Pair    | 207.16     | 207.16     | 207.16     |   0.0 | 30.38
Bond    | 12.624     | 12.624     | 12.624     |   0.0 |  1.85
Neigh   | 430.88     | 430.88     | 430.88     |   0.0 | 63.18
Comm    | 0.19178    | 0.19178    | 0.19178    |   0.0 |  0.03
Output  | 1.7441     | 1.7441     | 1.7441     |   0.0 |  0.26
Modify  | 27.31      | 27.31      | 27.31      |   0.0 |  4.00
Other   |            | 2.051      |            |       |  0.30

Nlocal:           1093 ave        1093 max        1093 min
Histogram: 1 0 0 0 0 0 0 0 0 0
Nghost:              0 ave           0 max           0 min
Histogram: 1 0 0 0 0 0 0 0 0 0
Neighs:         249023 ave      249023 max      249023 min
Histogram: 1 0 0 0 0 0 0 0 0 0

Total # of neighbors = 249023
Ave neighs/atom = 227.8344
Ave special neighs/atom = 1.9981702
Neighbor list builds = 3855
Dangerous builds = 0

# This simulation is done
# Move onto the next one
clear
  using 2 OpenMP thread(s) per MPI task
package omp 0
using multi-threaded neighbor list subroutines
next f
jump SELF

###
# Reference paper:
# K. Kremer and G. S. Grest
# Dynamics of entangled linear polymer melts: A molecular-dynamics simulation
# J Chem Phys 92, 5057 (1990)

##################################
# MIHIR: for branched polymers
# LJ minimum first to expand and explore, then collapse
###

###
# Looping through the various N5B4 polymers to simulate,
# define variables to switch through
variable f index bb37nuc5bl6bn4d30tot100V2 bb75nuc5bl12bn4d30tot200V2 bb112nuc5bl18bn4d30tot300V2 bb150nuc5bl25bn4d30tot400V2 bb187nuc5bl31bn4d30tot500V2 bb225nuc5bl37bn4d30tot600V2 bb262nuc5bl43bn4d30tot700V2 bb300nuc5bl50bn4d30tot800V2 bb337nuc5bl56bn4d30tot900V2 bb375nuc5bl62bn4d30tot1000V2 bb412nuc5bl68bn4d30tot1100V2 bb450nuc5bl75bn4d30tot1200V2
# variable f index bb37nuc5bl6bn4d30tot100V3 bb75nuc5bl12bn4d30tot200V3 bb112nuc5bl18bn4d30tot300V3 bb150nuc5bl25bn4d30tot400V3 bb187nuc5bl31bn4d30tot500V3 bb225nuc5bl37bn4d30tot600V3 bb262nuc5bl43bn4d30tot700V3 bb300nuc5bl50bn4d30tot800V3 bb337nuc5bl56bn4d30tot900V3 bb375nuc5bl62bn4d30tot1000V3 bb412nuc5bl68bn4d30tot1100V3 bb450nuc5bl75bn4d30tot1200V3
# variable f index bb37nuc5bl6bn4d30tot100 bb75nuc5bl12bn4d30tot200 bb112nuc5bl18bn4d30tot300 bb150nuc5bl25bn4d30tot400 bb187nuc5bl31bn4d30tot500 bb225nuc5bl37bn4d30tot600 bb262nuc5bl43bn4d30tot700 bb300nuc5bl50bn4d30tot800 bb337nuc5bl56bn4d30tot900 bb375nuc5bl62bn4d30tot1000 bb412nuc5bl68bn4d30tot1100 bb450nuc5bl75bn4d30tot1200
###


###
# Box and units  (use LJ units and periodic boundaries)
###

units lj
log N5B4/trial2/logs2/$f.log
log N5B4/trial2/logs2/bb450nuc5bl75bn4d30tot1200V2.log
