#atom_style bond #no stiffness
atom_style angle #with stiffness

boundary        p p p
###
# Pair interactions require lists of neighbours to be calculated
###

#neighbor 0.3 bin
neighbor 4 bin

neigh_modify every 1 delay 1 check yes
atom_modify sort 0 0
### Generate RESTART file, SPECIAL format, not a .txt file ###
### Useful if simulation crashes ###

restart 1000000 N5B4/trial2/restarts2/$f.restart
restart 1000000 N5B4/trial2/restarts2/bb450nuc5bl75bn4d30tot1200V2.restart
#############################



### READ "start" data file ###

read_data N5B4/trial2/dats2/$f.dat
read_data N5B4/trial2/dats2/bb450nuc5bl75bn4d30tot1200V2.dat
Reading data file ...
  orthogonal box = (-1000 -1000 -1000) to (1000 1000 1000)
  1 by 1 by 1 MPI processor grid
  reading atoms ...
  1201 atoms
  scanning bonds ...
  3 = max bonds/atom
  scanning angles ...
  6 = max angles/atom
  reading bonds ...
  1200 bonds
  reading angles ...
  1214 angles
Finding 1-2 1-3 1-4 neighbors ...
  special bond factors lj:    0        0        0       
  special bond factors coul:  0        0        0       
     4 = max # of 1-2 neighbors
     4 = max # of 1-3 neighbors
     8 = max # of 1-4 neighbors
    12 = max # of special neighbors
  special bonds CPU = 0.003 seconds
  read_data CPU = 0.181 seconds

######################

### READ "REstart" data file ###

######################



###
# Define groups (atom type 1 is group 'all')
###
group all type 1
1201 atoms in group all


###
# Dump configs - "simple dumpings"
###

###
# Dump configs + box coords
###

dump   1   all   custom   1000  N5B4/trial2/trjs2/$f.lammpstrj  id  x y z  ix iy iz
dump   1   all   custom   1000  N5B4/trial2/trjs2/bb450nuc5bl75bn4d30tot1200V2.lammpstrj  id  x y z  ix iy iz
dump_modify   1   format line "%d %.5f %.5f %.5f %d %d %d"

########################################################################


###################################################################
# Stiffness term
#
# E = K * (1+cos(theta)), K>0
#
angle_style   cosine
#change this coefficient to change stiffness (e.g. 1,5,10)
angle_coeff   1 1.0
###################################################################

###################################################################
# Pair interaction between non-bonded atoms
#
#  Lennard-Jones 12-6 potential with cutoff:
#  potential E=4epsilon[ (sigma/r)^12 - (sigma/r)^6]  for r<r_cut
#
#  1.12246 = 2^(1/6) is the minimum of the potential


pair_style      lj/cut 1.12246152962189
#pair_style      lj/cut 3

#
#  pair_modify shift yes adds a constant to the potential such

#  that E(r_cut)=0. Forces remains unchanged.
#

pair_modify     shift yes

#
#  pair_coeff for lj/cut, specify 4:
#    * atom type interacting with
#    * atom type
#    * epsilon (energy units)
#    * sigma (distance units)
#

pair_coeff      1 1 1.0 1.0
###################################################################

###################################################################
# Pair interaction between non-bonded atoms
#
#  soft potential, for PUSHING apart overlapping atoms
#  potential E=A*(1 + cos(pi*r/r_c))
#
#  1.12246 = 2^(1/6) is the cut-off r_c

#pair_style     soft 1.12246152962189

#
#  pair_coeff for soft, specify 3:
#    * atom type interacting with
#    * atom type
#    * A
#
#

#pair_coeff      1 1 100.0
###################################################################

###################################################################
# Pair interaction between bonded atoms
#
# Fene potential + Lennard Jones 12-6:

#
#  E= - 0.5 K R0^2 ln[ 1- (r/R0)^2]
#     + 4epsilon[ (sigma/r)^12 - (sigma/r)^6] + epsilon
#

bond_style   fene


#
# For style fene, specify:
#   * bond type
#   * K (energy/distance^2)
#   * R0 (distance)
#   * epsilon (energy)  (LJ component)
#   * sigma (distance)  (LJ component)
#


special_bonds fene #<=== I M P O R T A N T (new command)
Finding 1-2 1-3 1-4 neighbors ...
  special bond factors lj:    0        1        1       
  special bond factors coul:  0        1        1       
     4 = max # of 1-2 neighbors
    12 = max # of special neighbors
  special bonds CPU = 0.001 seconds

bond_coeff   1   30   2   1.0   1.0


###################################################

###################################################################
# Pair interaction between bonded atoms
#
# Harmonic potential:
#
#  E= K * (R-R0)^2
#

#bond_style   harmonic

#
# For style harmonic, specify:
#   * bond type
#   * K (energy/distance^2)
#   * R0 (distance)
#

#bond_coeff   1   60.0   1.0
#bond_coeff   2   harmonic 0.1   1.0

###################################################
compute 1 all gyration
variable rog equal c_1
#compute 2 all coord/atom cutoff 1.1

#dump 2 all custom 10000 contact_number.dump id c_2


###
# Set up fixes
###
thermo_style   custom   step  temp enthalpy c_1
fix 1 all nve   ###NVE ensemble

fix 2 all   langevin   1.0 1.0 1.0  778655   ###Langevin integrator Tstart Tstop 1/friction rndseed


##### Sample thermodynamic info  (temperature, energy, pressure, etc.) #####
thermo 1000









############################################################################

###
# set timestep of integrator

timestep 0.01

###
# run integration for a number of steps
###
#run 0
#variable r equal c_1
#if "$r < 63.1" then "quit 1"

# lj potential minimum, cause molecule to explore
run 100000
Generated 0 of 0 mixed pair_coeff terms from geometric mixing rule
Last active /omp style is angle_style cosine/omp
Neighbor list info ...
  update: every = 1 steps, delay = 1 steps, check = yes
  max neighbors/atom: 2000, page size: 100000
  master list distance cutoff = 5.1224615
  ghost atom cutoff = 5.1224615
  binsize = 2.5612308, bins = 781 781 781
  1 neighbor lists, perpetual/occasional/extra = 1 0 0
  (1) pair lj/cut/omp, perpetual
      attributes: half, newton on, omp
      pair build: half/bin/newton/omp
      stencil: half/bin/3d
      bin: standard
WARNING: Communication cutoff 5.12246152962189 is shorter than a bond length based estimate of 5.455. This may lead to errors. (src/comm.cpp:723)
Per MPI rank memory allocation (min/avg/max) = 1862 | 1862 | 1862 Mbytes
   Step          Temp         Enthalpy         c_1      
         0   0              13.26424       81.682477    
      1000   1.0272966      18.506777      80.915433    
      2000   1.0002469      18.627312      80.295128    
      3000   1.0094379      19.051048      79.733079    
      4000   1.0112537      19.562713      79.073487    
      5000   0.99778793     19.222271      78.706118    
      6000   1.0595925      19.558418      78.461894    
      7000   1.0473964      19.676759      78.283258    
      8000   1.0218752      19.416886      77.956702    
      9000   1.0486634      19.302868      77.644867    
     10000   0.98382393     19.702837      77.375677    
     11000   1.0151463      19.705297      77.027763    
     12000   0.98966078     19.762765      76.528828    
     13000   1.0119833      19.777128      76.316265    
     14000   1.0222534      20.053365      76.034846    
     15000   1.0421009      20.19317       75.839229    
     16000   1.0081236      20.188648      75.453585    
     17000   0.99174199     20.197508      75.229617    
     18000   0.99939145     19.583246      74.875898    
     19000   0.9865849      19.309907      74.745874    
     20000   1.0462104      20.001121      74.412731    
     21000   1.0449578      20.048598      74.282667    
     22000   1.0267059      20.350229      74.035523    
     23000   1.0359037      20.505912      73.988817    
     24000   1.0430879      19.806324      73.766437    
     25000   1.0196069      19.790635      73.667714    
     26000   1.0077749      20.058388      73.447221    
     27000   0.99583871     20.313497      73.109079    
     28000   1.0116851      19.758704      72.859645    
     29000   1.0225004      20.286559      72.463842    
     30000   0.96389137     20.193256      72.348587    
     31000   1.0039433      19.762111      72.246145    
     32000   1.0249781      20.129276      72.030557    
     33000   1.0493795      20.27396       71.727732    
     34000   1.0339721      20.043321      71.48909     
     35000   1.009507       20.53737       71.310758    
     36000   0.94703352     19.814674      71.027754    
     37000   0.99550214     20.493931      70.720183    
     38000   0.99366381     20.060767      70.471149    
     39000   1.0348546      20.468326      70.349082    
     40000   1.0041379      20.240748      70.029168    
     41000   1.0058988      20.412068      70.023771    
     42000   1.0053694      20.538117      69.976384    
     43000   1.0186997      20.37294       69.796781    
     44000   1.0195794      20.473253      69.707355    
     45000   0.97128379     20.051704      69.587348    
     46000   1.0139598      20.394478      69.498024    
     47000   0.98889602     20.321603      69.394998    
     48000   1.0172901      20.243136      69.382191    
     49000   1.0235211      20.354684      69.284956    
     50000   0.99173223     20.432964      69.203959    
     51000   1.0206553      20.291531      69.063284    
     52000   0.98354691     20.378493      68.842484    
     53000   1.0205788      20.143282      68.844462    
     54000   1.0344971      20.595925      68.752724    
     55000   1.0088433      20.547362      68.581019    
     56000   0.99571907     19.900112      68.719952    
     57000   0.97875977     20.642969      68.756143    
     58000   1.0162001      20.427983      68.596573    
     59000   0.97187756     20.175195      68.405058    
     60000   1.0053493      20.399101      68.374418    
     61000   0.97938138     20.68045       68.272606    
     62000   0.98346754     20.563585      68.215914    
     63000   0.99609583     20.353206      67.954878    
     64000   1.0368354      21.102702      67.749118    
     65000   1.0140551      20.208863      67.589471    
     66000   0.95984373     20.119534      67.686286    
     67000   1.0056549      20.66969       67.539522    
     68000   0.97666765     20.273058      67.358906    
     69000   1.0151369      20.369777      67.187193    
     70000   1.0268213      20.303449      67.044155    
     71000   0.98647447     20.304111      66.933008    
     72000   0.97493635     20.308082      66.805347    
     73000   1.061066       20.564696      66.712995    
     74000   1.0082941      20.089926      66.479699    
     75000   0.96032449     20.330698      66.549075    
     76000   0.99004903     20.496701      66.519853    
     77000   1.0064962      20.242927      66.331782    
     78000   0.98879677     20.644607      66.267975    
     79000   0.97693425     20.456511      66.141454    
     80000   0.97627871     20.936745      65.995634    
     81000   0.99723424     20.425665      66.038161    
     82000   1.0174468      20.793541      65.920377    
     83000   1.0375188      20.515118      65.757278    
     84000   1.0055317      20.273562      65.589721    
     85000   0.98162986     20.083973      65.653884    
     86000   0.98734575     20.113113      65.634727    
     87000   0.97844086     20.508446      65.583377    
     88000   0.98838086     20.365252      65.535082    
     89000   0.9990383      20.293051      65.412071    
     90000   1.0278202      20.447233      65.046311    
     91000   0.96994993     20.595904      64.700196    
     92000   1.017886       20.574357      64.574249    
     93000   0.98501941     20.115926      64.356257    
     94000   1.0030058      20.397347      64.114973    
     95000   1.0166327      20.085088      63.96102     
     96000   0.98987226     20.193702      63.957645    
     97000   1.0048926      20.043374      64.127284    
     98000   0.98584033     20.97669       64.043631    
     99000   0.98617422     20.007336      64.221911    
    100000   0.97847586     20.883278      63.953867    
Loop time of 268.95 on 2 procs for 100000 steps with 1201 atoms

Performance: 321249.055 tau/day, 371.816 timesteps/s
104.0% CPU use with 1 MPI tasks x 2 OpenMP threads

MPI task timing breakdown:
Section |  min time  |  avg time  |  max time  |%varavg| %total
---------------------------------------------------------------
Pair    | 1.3648     | 1.3648     | 1.3648     |   0.0 |  0.51
Bond    | 2.2862     | 2.2862     | 2.2862     |   0.0 |  0.85
Neigh   | 259.56     | 259.56     | 259.56     |   0.0 | 96.51
Comm    | 0.030374   | 0.030374   | 0.030374   |   0.0 |  0.01
Output  | 0.3282     | 0.3282     | 0.3282     |   0.0 |  0.12
Modify  | 5.0555     | 5.0555     | 5.0555     |   0.0 |  1.88
Other   |            | 0.3212     |            |       |  0.12

Nlocal:           1201 ave        1201 max        1201 min
Histogram: 1 0 0 0 0 0 0 0 0 0
Nghost:              0 ave           0 max           0 min
Histogram: 1 0 0 0 0 0 0 0 0 0
Neighs:           9479 ave        9479 max        9479 min
Histogram: 1 0 0 0 0 0 0 0 0 0

Total # of neighbors = 9479
Ave neighs/atom = 7.8925895
Ave special neighs/atom = 1.9983347
Neighbor list builds = 1200
Dangerous builds = 0

# Replace lj potential, now collapse
pair_style      lj/cut 3

# Cutoff simul when gyration under 7
# Variable created with equal requires v_ + 'name'
fix 3 all halt 1000 v_rog < 7

run 3000000
Generated 0 of 0 mixed pair_coeff terms from geometric mixing rule
Last active /omp style is angle_style cosine/omp
Per MPI rank memory allocation (min/avg/max) = 1862 | 1862 | 1862 Mbytes
   Step          Temp         Enthalpy         c_1      
    100000   0.97847586     20.055343      63.953867    
    101000   1.0150118      19.859715      63.639213    
    102000   0.93916522     19.686372      63.316846    
    103000   0.99840004     19.781627      63.253208    
    104000   1.0317279      20.183762      63.299203    
    105000   0.9969232      19.431775      63.203942    
    106000   1.0022421      18.886894      63.174518    
    107000   1.0243733      19.388358      63.042583    
    108000   1.0306105      19.370389      62.634062    
    109000   1.0018151      18.650965      62.284074    
    110000   0.9864827      18.842851      62.09075     
    111000   0.95607107     18.890856      62.146367    
    112000   1.0130008      19.069405      61.821107    
    113000   1.0363437      19.564237      61.686945    
    114000   0.98411687     19.011601      61.484983    
    115000   0.98672354     18.739486      61.406997    
    116000   1.0022432      18.66039       61.325333    
    117000   1.0058753      18.846405      61.16447     
    118000   1.0251908      19.172835      61.028982    
    119000   0.96222806     18.282625      60.893301    
    120000   1.0028704      18.411744      60.799313    
    121000   1.013013       18.665746      60.764475    
    122000   0.98685062     18.073575      60.590708    
    123000   1.0321385      18.758181      60.405742    
    124000   1.0574273      19.142126      60.017816    
    125000   1.0327681      19.031262      59.823851    
    126000   0.99455855     18.540089      59.877276    
    127000   1.0164215      18.493418      59.916808    
    128000   0.99299001     19.125731      59.970995    
    129000   0.98543351     18.725347      59.731711    
    130000   1.0093325      18.296677      59.423156    
    131000   0.98207204     18.464893      59.198283    
    132000   1.0224293      18.55158       59.209467    
    133000   0.98688838     18.162515      59.050096    
    134000   1.0097239      18.23066       58.67373     
    135000   1.0087655      18.106454      58.363263    
    136000   1.0133836      19.078283      58.135352    
    137000   0.99483986     18.237273      57.943913    
    138000   1.0137342      18.262234      57.811094    
    139000   0.97425912     18.166347      57.567238    
    140000   0.97419285     18.080184      57.447122    
    141000   0.96195394     17.858963      57.254199    
    142000   1.0238492      18.317444      57.039939    
    143000   1.0263266      18.242314      56.971707    
    144000   1.0451064      18.012642      56.763235    
    145000   0.98699136     18.082946      56.765106    
    146000   0.97127753     17.962946      56.573402    
    147000   1.0120427      17.521499      56.428904    
    148000   0.97727187     18.118279      56.375204    
    149000   0.98503108     18.495671      56.385398    
    150000   1.0093299      17.961109      56.423599    
    151000   0.97687013     17.907514      56.374199    
    152000   0.98806276     18.069575      56.276934    
    153000   1.0000186      17.729794      56.064973    
    154000   1.038091       18.299015      55.776403    
    155000   0.9826843      18.490601      55.766671    
    156000   1.0506921      18.389227      55.580017    
    157000   0.97964425     18.172459      55.496426    
    158000   0.99687753     18.231311      55.450067    
    159000   1.0157207      17.979448      55.382625    
    160000   0.9953368      18.015717      55.49851     
    161000   1.0014094      17.875083      55.446348    
    162000   1.0211035      18.476492      55.45124     
    163000   1.0171562      17.555328      54.995907    
    164000   0.97782664     18.052511      54.87834     
    165000   0.96931447     17.966404      54.743495    
    166000   1.0117113      18.123691      54.561422    
    167000   1.0020152      17.792749      54.437409    
    168000   1.0119146      17.852839      54.380588    
    169000   0.99570487     17.63094       54.418891    
    170000   1.0682786      18.231197      54.285719    
    171000   1.0040185      18.694907      54.277107    
    172000   1.0394245      18.256753      54.138614    
    173000   0.98642275     18.238086      54.363826    
    174000   1.0518438      18.242719      54.31618     
    175000   0.986328       17.882213      54.270843    
    176000   0.99222008     18.030707      54.129613    
    177000   1.0064677      17.974275      54.081972    
    178000   1.0112634      17.651457      53.930988    
    179000   0.99303679     17.888901      53.931251    
    180000   0.98944267     18.293287      53.697919    
    181000   0.95079107     18.017938      53.746083    
    182000   0.99909249     17.936576      53.851416    
    183000   0.97921399     17.487862      53.774404    
    184000   1.0055656      17.784082      53.628863    
    185000   1.039707       18.089511      53.6442      
    186000   0.97327186     17.871557      53.505682    
    187000   1.0431194      18.169631      53.156104    
    188000   0.99641457     17.682791      53.103107    
    189000   0.98494727     17.803487      53.006821    
    190000   0.99468921     18.304352      52.91924     
    191000   1.0197744      18.029663      52.697485    
    192000   1.0049696      17.837879      52.49829     
    193000   0.96936029     17.931262      52.375328    
    194000   1.0349403      17.59991       52.281395    
    195000   0.98850492     17.686249      52.183812    
    196000   1.0012898      17.667503      51.972242    
    197000   0.99409229     17.85452       51.732114    
    198000   1.023683       17.593507      51.418309    
    199000   1.036227       18.673212      51.197678    
    200000   0.99753273     17.692442      51.461508    
    201000   0.99186167     18.102579      51.468422    
    202000   1.0064349      17.957255      51.353183    
    203000   1.0105805      17.803989      51.196473    
    204000   1.0371446      18.165022      51.236184    
    205000   0.98857575     18.290775      51.198337    
    206000   0.98851675     18.163017      51.086986    
    207000   1.03319        17.686252      50.993964    
    208000   0.95556537     17.891717      50.683489    
    209000   0.9892541      17.947272      50.446036    
    210000   0.96239018     17.380615      50.551405    
    211000   1.0144609      17.576556      50.476121    
    212000   0.98702086     17.141967      50.361503    
    213000   1.0085761      17.976007      50.338218    
    214000   0.99061068     18.331874      50.210604    
    215000   1.0036745      17.991606      50.265791    
    216000   1.0332077      18.08095       50.271909    
    217000   0.99181863     18.394152      50.353443    
    218000   1.0333922      17.532362      50.236051    
    219000   1.0532337      17.834677      50.326081    
    220000   0.99750582     17.51139       50.513844    
    221000   1.0435394      17.891866      50.490705    
    222000   1.0313158      17.648141      50.25004     
    223000   0.99086445     18.326057      50.276013    
    224000   0.99355506     18.162716      50.226203    
    225000   1.0045966      17.481366      50.316411    
    226000   0.96975278     18.20124       50.350359    
    227000   1.0065851      18.15495       50.423696    
    228000   0.9879021      17.779175      50.384407    
    229000   1.0028702      17.704415      50.226059    
    230000   0.98278419     17.54576       50.080283    
    231000   1.0086515      17.465119      49.99583     
    232000   0.97863079     17.433937      50.091781    
    233000   1.0012488      18.008487      49.898346    
    234000   1.0063827      18.11414       49.825205    
    235000   1.0597311      17.887201      49.782935    
    236000   0.98804654     17.328174      49.859838    
    237000   0.96465611     17.674572      49.814269    
    238000   0.98552093     18.388815      49.637197    
    239000   0.99643792     17.975145      49.545617    
    240000   0.98135274     17.993813      49.274003    
    241000   0.97808975     18.468135      49.168797    
    242000   1.0590775      17.906859      49.100729    
    243000   1.0052658      17.707681      48.912672    
    244000   1.0051205      17.657397      49.037885    
    245000   0.97362686     17.258461      48.920029    
    246000   0.99365835     17.668515      48.853891    
    247000   0.99422906     18.23168       48.902946    
    248000   1.0082392      17.48527       48.894449    
    249000   0.96872844     18.290246      48.980482    
    250000   0.96539084     17.818956      48.706844    
    251000   1.0112583      18.004173      48.692434    
    252000   1.0407977      17.375442      48.668994    
    253000   1.0108012      17.769546      48.538302    
    254000   0.96845716     17.269669      48.436689    
    255000   1.017977       17.544268      48.356479    
    256000   1.0041335      17.984863      48.35598     
    257000   0.9851382      17.652876      48.306586    
    258000   1.0091523      17.729621      48.196524    
    259000   1.0287659      17.978295      48.197967    
    260000   0.99000168     17.835493      48.179313    
    261000   0.96124822     17.96201       48.223593    
    262000   0.9797988      17.876761      48.105305    
    263000   1.0079864      17.639491      48.042036    
    264000   1.0092077      17.834569      47.942299    
    265000   1.0051502      17.788236      47.909313    
    266000   0.98201375     17.571085      47.586956    
    267000   0.97409757     17.306007      47.485286    
    268000   1.0166233      18.554274      47.31454     
    269000   0.99694269     17.985806      46.983485    
    270000   0.99877651     17.883752      46.898321    
    271000   1.0422077      17.710205      46.780343    
    272000   1.0361845      18.423292      46.679576    
    273000   1.003716       17.81557       46.838996    
    274000   1.0037632      17.806611      46.667235    
    275000   1.0331532      17.699517      46.559488    
    276000   0.97665725     17.574976      46.405158    
    277000   1.045611       18.129867      46.309269    
    278000   1.0071122      18.023879      46.25998     
    279000   1.018617       17.653577      46.03474     
    280000   0.99771655     17.805604      45.946596    
    281000   1.0067666      17.908386      45.650457    
    282000   0.9929637      17.469156      45.784701    
    283000   1.0052566      17.860067      45.696186    
    284000   0.98460129     18.16609       45.699488    
    285000   0.97601242     17.624993      45.419022    
    286000   0.96309282     17.962977      45.341978    
    287000   1.0197767      18.08189       45.152789    
    288000   0.97438135     18.114682      45.339047    
    289000   1.0006239      17.759862      45.19086     
    290000   0.99884111     17.427125      44.954659    
    291000   1.0112602      17.823923      45.261022    
    292000   0.93598354     17.769377      45.352713    
    293000   1.0144447      17.895647      45.470515    
    294000   1.0304845      17.923777      45.447334    
    295000   1.016891       17.929173      45.376058    
    296000   1.0300283      17.991163      45.365967    
    297000   0.97750488     17.103085      45.276751    
    298000   0.99619167     17.689021      45.021028    
    299000   1.0257768      17.850439      45.020648    
    300000   0.97242348     17.930851      45.099486    
    301000   0.97487038     17.815607      44.948847    
    302000   1.0433485      17.564558      44.765596    
    303000   1.0303346      17.506668      44.672905    
    304000   1.015873       17.896117      44.618711    
    305000   0.97572155     17.542027      44.675377    
    306000   1.0275113      18.354258      44.395528    
    307000   1.0016153      17.708971      44.168718    
    308000   0.99717708     18.083599      43.799582    
    309000   0.98977587     18.163288      43.698597    
    310000   1.0258655      17.828375      43.44754     
    311000   1.0075155      17.837118      43.528224    
    312000   0.9950306      18.036017      43.491586    
    313000   1.0217028      17.389912      43.551774    
    314000   0.99804242     17.417925      43.207591    
    315000   0.99054156     17.485781      42.919166    
    316000   0.99704467     17.249359      42.848965    
    317000   1.0186633      17.647749      42.513631    
    318000   1.022537       17.775379      42.343536    
    319000   0.99866954     17.691697      42.43046     
    320000   1.0007162      17.947137      42.585567    
    321000   1.0218379      18.089288      42.527819    
    322000   0.95067074     17.472136      42.259069    
    323000   0.982826       17.927238      42.174254    
    324000   1.0024136      17.609721      42.118786    
    325000   1.0004066      17.7761        41.87333     
    326000   1.0411339      17.909147      42.003852    
    327000   1.0170174      18.383714      42.042083    
    328000   0.98266471     17.749466      41.866513    
    329000   1.0341591      17.559049      41.955722    
    330000   0.98857534     17.684129      41.965132    
    331000   0.98691718     17.112485      41.962527    
    332000   1.0121647      17.417421      41.760509    
    333000   1.0126756      17.461308      41.7012      
    334000   1.0183152      17.467313      41.579687    
    335000   1.0324291      17.662426      41.412705    
    336000   0.98424076     17.546107      41.184513    
    337000   0.97436145     17.809998      40.930481    
    338000   0.98180463     18.226125      40.779688    
    339000   1.0294038      18.014591      40.875023    
    340000   1.0061764      16.876444      40.63483     
    341000   1.0017446      17.57899       40.545332    
    342000   1.013941       17.330812      40.43404     
    343000   0.99889331     17.293162      40.134921    
    344000   0.99458965     17.811064      40.103089    
    345000   1.0139994      17.396553      40.094193    
    346000   1.0078542      17.79362       39.833709    
    347000   1.039718       17.821739      39.793954    
    348000   1.0026633      18.023161      39.512392    
    349000   0.99707245     18.020256      39.486674    
    350000   0.96747084     16.937048      39.938267    
    351000   1.050103       17.83295       39.755196    
    352000   0.9261194      17.225482      40.059212    
    353000   0.99306892     17.396121      39.931942    
    354000   0.96983048     18.004837      39.867462    
    355000   0.95645015     18.004047      39.830336    
    356000   1.0143953      17.679095      39.749623    
    357000   0.99738614     17.769987      39.729698    
    358000   0.96295245     17.59773       39.620047    
    359000   1.0188859      17.469768      39.587338    
    360000   1.0175168      17.978199      39.653386    
    361000   1.0167966      17.804008      39.515662    
    362000   1.0162474      17.844744      39.425475    
    363000   1.0004585      17.425035      39.502875    
    364000   1.000677       17.606799      39.398311    
    365000   0.98509574     17.544167      39.366122    
    366000   0.99475929     17.268238      39.388691    
    367000   1.0079239      17.525386      39.396857    
    368000   1.0233986      17.623949      39.405979    
    369000   0.97420353     17.582333      39.316511    
    370000   0.99408302     17.558706      39.283101    
    371000   1.0145703      17.477506      39.164188    
    372000   0.97822251     18.039539      39.213153    
    373000   1.0059829      17.948948      39.158429    
    374000   0.98281336     17.742739      39.002021    
    375000   0.96864571     17.159553      38.869763    
    376000   0.99189419     17.346929      38.815292    
    377000   0.97079678     17.407255      38.860727    
    378000   0.99823342     17.345824      38.85219     
    379000   1.0047893      17.93395       38.805115    
    380000   1.0018941      18.009096      38.715107    
    381000   0.984653       17.408239      38.790452    
    382000   0.97103163     17.250301      38.874227    
    383000   1.0330209      17.713446      38.890763    
    384000   0.99473149     17.834888      38.690504    
    385000   0.9801001      17.460446      38.569186    
    386000   1.0045426      17.244761      38.557879    
    387000   1.0088429      17.369617      38.599631    
    388000   0.99919446     17.364355      38.512007    
    389000   0.99223418     18.225017      38.332962    
    390000   0.97197893     17.924943      38.222916    
    391000   1.0407067      17.784608      38.189877    
    392000   1.0680231      17.707498      38.167065    
    393000   0.98145597     17.887379      38.062385    
    394000   1.0278517      18.129359      37.923589    
    395000   1.0202731      17.453843      37.839188    
    396000   0.98068231     18.051109      37.786508    
    397000   0.97844313     18.112122      37.726146    
    398000   1.0373499      17.920409      37.580138    
    399000   1.0037672      17.448664      37.570325    
    400000   0.98202763     17.384615      37.521796    
    401000   1.0081766      17.998195      37.288769    
    402000   0.98262205     17.898229      37.027276    
    403000   1.0141593      17.756744      36.812488    
    404000   0.98212871     18.110344      36.742702    
    405000   1.0025041      17.366262      36.607569    
    406000   1.0384084      17.889461      36.596183    
    407000   1.0267181      17.159449      36.318969    
    408000   0.98345918     17.682114      35.963839    
    409000   1.0008419      17.82052       36.036519    
    410000   0.97863998     18.083833      35.803545    
    411000   0.99568605     17.94719       35.612985    
    412000   1.026452       17.501554      35.639654    
    413000   1.0228077      17.933853      35.423447    
    414000   1.0104572      17.665331      35.46363     
    415000   1.0386655      17.40879       35.485059    
    416000   1.0181994      17.02868       35.47256     
    417000   1.0076624      17.720476      35.300203    
    418000   0.99333177     17.906448      35.23224     
    419000   0.97513942     17.368011      35.229687    
    420000   0.9768407      17.712442      34.962602    
    421000   1.0200346      17.538208      34.907922    
    422000   0.97187306     16.511944      34.756382    
    423000   1.0290915      17.870766      34.709075    
    424000   1.0164846      17.742777      34.675987    
    425000   0.99709208     17.422162      34.431386    
    426000   0.97379823     17.671076      34.56477     
    427000   1.0060203      17.370244      34.330783    
    428000   1.0258045      17.16675       34.402817    
    429000   0.98931845     17.584401      34.26312     
    430000   1.0198351      18.002905      34.10075     
    431000   0.99655485     17.717721      34.248047    
    432000   1.0308181      17.83298       34.244322    
    433000   1.0039713      17.66767       34.12508     
    434000   1.0031612      16.920083      33.905489    
    435000   1.0012811      17.466699      33.724427    
    436000   0.99568816     17.53325       33.535459    
    437000   1.0349293      17.523286      33.602463    
    438000   0.99515904     17.38719       33.457477    
    439000   0.99333533     17.503273      33.333074    
    440000   1.0310197      18.193653      33.428239    
    441000   0.99375239     16.936509      33.225764    
    442000   0.98469116     17.235428      33.218804    
    443000   1.014217       17.300866      33.17139     
    444000   0.99515545     17.598979      33.04847     
    445000   0.98951332     17.588205      32.963111    
    446000   0.98915073     18.049145      32.75703     
    447000   0.97834535     17.131223      32.59885     
    448000   0.99613895     17.175431      32.630013    
    449000   0.9781782      17.637056      32.400276    
    450000   0.9964597      17.578694      32.352184    
    451000   0.98243987     17.184002      32.250783    
    452000   0.97798107     17.550523      32.113249    
    453000   0.98888416     17.576381      31.896422    
    454000   0.97541434     17.192164      31.949643    
    455000   1.0038901      17.34811       31.773777    
    456000   0.97351238     17.258455      31.734557    
    457000   0.9897693      17.179237      31.696699    
    458000   0.9794298      17.183964      31.802308    
    459000   1.0014024      17.026618      31.823996    
    460000   0.9741491      17.450246      31.649879    
    461000   1.0326286      17.72214       31.689089    
    462000   0.98922341     17.269282      31.576702    
    463000   0.99562932     16.870599      31.76148     
    464000   1.033227       17.821817      31.940265    
    465000   0.97191456     17.47139       31.771629    
    466000   1.0093616      17.634029      31.477913    
    467000   1.0490272      17.944542      31.304917    
    468000   1.0290203      17.894425      31.391163    
    469000   1.0196308      17.067412      31.360717    
    470000   1.014776       17.36653       31.180677    
    471000   1.0146339      17.258824      31.319492    
    472000   0.96586544     18.135982      31.223533    
    473000   1.0059551      17.371225      31.127192    
    474000   1.0381404      17.133474      31.13402     
    475000   0.97971941     17.189618      30.952335    
    476000   1.0220623      17.579424      30.716442    
    477000   1.0045038      17.455192      30.532565    
    478000   0.99715638     16.899105      30.224397    
    479000   1.0236619      17.392947      30.242859    
    480000   0.9288412      16.6735        30.263723    
    481000   0.98138861     17.346346      30.320704    
    482000   1.0455764      17.475103      30.448502    
    483000   1.0148341      17.48328       30.192238    
    484000   1.0151383      17.272146      30.201811    
    485000   0.9873387      17.188865      29.933452    
    486000   0.96624435     17.672158      29.841164    
    487000   1.0191756      17.38632       29.679314    
    488000   1.0111705      17.409367      29.707191    
    489000   0.97685524     17.34877       29.691385    
    490000   0.93102366     17.068674      29.836249    
    491000   0.99368807     17.419726      29.619904    
    492000   0.96737821     17.210553      29.533704    
    493000   1.0083494      17.532123      29.270617    
    494000   0.96047483     17.106913      28.913842    
    495000   0.99155435     17.761978      28.828248    
    496000   1.0325977      17.554789      28.962148    
    497000   1.0038349      17.796903      28.883071    
    498000   0.94627261     17.405187      28.585482    
    499000   1.0118764      17.720494      28.536731    
    500000   0.99671871     17.752408      28.507283    
    501000   1.0089456      17.253179      28.423408    
    502000   1.0052077      17.33911       28.443659    
    503000   0.98263437     17.168821      28.480706    
    504000   0.99427683     17.533346      28.531438    
    505000   0.97573132     17.126009      28.242932    
    506000   0.97411889     17.331049      28.139046    
    507000   1.0047691      17.647722      28.092306    
    508000   1.0178565      17.795026      27.884927    
    509000   0.97837683     17.720786      27.974054    
    510000   0.99532142     16.768358      27.769446    
    511000   0.95593144     17.543636      27.689026    
    512000   0.97504497     17.117227      27.602639    
    513000   0.97282221     16.909969      27.581977    
    514000   0.99383598     17.337026      27.543953    
    515000   1.0061163      17.277842      27.51025     
    516000   0.99320648     17.881329      27.512569    
    517000   1.0166632      17.154542      27.402668    
    518000   0.98738391     17.264962      27.478112    
    519000   1.0095775      17.815544      27.495645    
    520000   1.0059479      17.478474      27.503534    
    521000   1.0145565      17.187466      27.290963    
    522000   1.001677       16.617112      27.199519    
    523000   1.0091274      17.264934      27.016563    
    524000   0.97199209     16.946615      27.004501    
    525000   1.0124921      17.48855       27.059299    
    526000   1.0231357      17.003104      27.039514    
    527000   1.0083516      17.625971      26.699661    
    528000   0.97759351     17.465799      26.507809    
    529000   1.0517616      17.401587      26.434015    
    530000   1.0544474      17.006003      26.546836    
    531000   1.0214434      17.913462      26.314624    
    532000   1.0443688      17.130709      26.103052    
    533000   1.0207378      17.114941      26.197902    
    534000   1.0428549      17.14421       26.034313    
    535000   1.0116125      17.467845      25.958429    
    536000   1.0737614      17.694787      25.960024    
    537000   0.99807687     17.019469      25.766746    
    538000   1.000396       17.820639      25.765207    
    539000   1.0021025      17.610569      25.5692      
    540000   1.0138523      17.363226      25.394187    
    541000   0.97495439     17.636796      25.358256    
    542000   1.0210423      17.580559      25.096328    
    543000   1.0046094      17.299771      25.120303    
    544000   1.0088941      17.205644      25.167805    
    545000   0.99188948     17.303081      25.22889     
    546000   0.99030935     17.324349      25.200571    
    547000   1.00959        17.988607      25.201215    
    548000   0.99909679     17.028986      25.264876    
    549000   0.9758141      17.361263      25.046218    
    550000   1.0066321      17.732786      25.070981    
    551000   0.99832497     17.583436      24.982708    
    552000   1.0165499      17.603193      24.921389    
    553000   1.0189295      17.588689      24.813029    
    554000   0.99993424     17.238714      24.844708    
    555000   0.97705078     17.215783      24.995427    
    556000   0.99333761     17.303765      24.820796    
    557000   1.0087375      17.567078      24.66179     
    558000   1.0080821      16.781886      24.632494    
    559000   0.95352049     17.780383      24.698706    
    560000   1.010459       17.085521      24.497471    
    561000   0.98680726     18.072973      24.49313     
    562000   1.0011765      17.365392      24.42285     
    563000   0.97846031     17.190977      24.390921    
    564000   1.0195568      17.546361      23.932459    
    565000   0.99524539     17.461655      24.002368    
    566000   1.0125548      17.363076      23.980978    
    567000   1.0242004      17.155548      23.85847     
    568000   1.0493587      17.145025      23.81545     
    569000   0.99336407     17.155033      23.659923    
    570000   0.99657145     17.112081      23.765359    
    571000   0.99839257     17.416186      23.811061    
    572000   1.0082701      17.179413      23.525993    
    573000   0.99152241     17.405345      23.390057    
    574000   0.98852882     17.72606       23.377942    
    575000   0.9920439      17.392098      23.343201    
    576000   0.98194393     17.097303      23.373943    
    577000   1.0170918      17.049732      23.209948    
    578000   0.99950865     17.930889      23.214064    
    579000   0.98193261     16.929843      23.20113     
    580000   0.99450405     17.239614      23.230138    
    581000   0.99342487     17.19681       23.323649    
    582000   1.0097256      17.247904      23.24533     
    583000   1.0084193      17.50522       23.248254    
    584000   0.99749964     17.23556       23.456426    
    585000   0.98604984     17.468416      23.59981     
    586000   0.97921624     16.819672      23.420395    
    587000   0.99071532     17.72296       23.245947    
    588000   1.018878       17.309831      22.987411    
    589000   1.0164958      17.21595       22.781762    
    590000   1.0137061      17.578915      22.732717    
    591000   1.0199079      16.954024      22.783891    
    592000   1.0160336      17.60625       22.708807    
    593000   0.96148764     17.38107       22.715696    
    594000   1.0044521      17.570535      22.62982     
    595000   1.0026058      17.315515      22.452786    
    596000   1.0468273      17.150582      22.315749    
    597000   0.99716492     17.872943      22.193549    
    598000   0.99381567     17.171008      22.168112    
    599000   0.98785903     17.234679      22.084849    
    600000   1.0040766      17.732899      21.841135    
    601000   1.0117563      17.727877      21.868085    
    602000   1.0397797      17.423965      21.905126    
    603000   0.9901492      16.910875      21.836986    
    604000   1.039527       17.479635      21.739333    
    605000   1.0355443      17.590064      21.707304    
    606000   1.0034828      17.063044      21.61182     
    607000   1.0039275      17.490362      21.493609    
    608000   0.97999122     16.66071       21.642702    
    609000   1.0193396      17.601738      21.404993    
    610000   0.96524511     16.980192      21.355376    
    611000   1.0191834      17.298756      21.226897    
    612000   1.012057       17.491634      21.178027    
    613000   1.0115806      17.078058      21.051747    
    614000   0.99950533     16.866693      20.844344    
    615000   0.97960051     17.033301      20.757986    
    616000   1.0333667      17.310345      20.581028    
    617000   1.0246838      17.396561      20.457007    
    618000   0.9955532      17.069466      20.362339    
    619000   0.97639425     17.304727      20.289296    
    620000   1.006077       17.655738      19.94642     
    621000   0.99440949     16.922275      19.861452    
    622000   0.9984591      17.200275      19.883081    
    623000   0.97298454     17.138455      19.758156    
    624000   1.0311686      17.29303       19.604261    
    625000   0.9737531      17.812459      19.563592    
    626000   0.98577943     16.969235      19.622136    
    627000   1.0197742      17.662672      19.481913    
    628000   0.99710539     17.506494      19.567906    
    629000   0.99561298     17.248103      19.212807    
    630000   1.0372648      17.82994       19.253725    
    631000   0.99691094     17.095291      19.117519    
    632000   1.0144948      17.205177      19.09584     
    633000   1.0131328      17.296653      19.080315    
    634000   0.97213875     17.419884      18.96154     
    635000   1.0294763      17.071127      18.876571    
    636000   1.0134671      17.345576      18.597151    
    637000   0.97780582     17.220536      18.596295    
    638000   0.98298493     17.06312       18.437142    
    639000   1.0035429      17.092526      18.496727    
    640000   1.0075353      17.621095      18.335424    
    641000   0.99051729     17.086283      18.28615     
    642000   1.0304608      17.175114      18.051541    
    643000   0.98550142     16.910883      18.064359    
    644000   0.99714074     17.147568      17.664054    
    645000   0.97600261     16.798402      17.684838    
    646000   0.96787482     17.457726      17.599941    
    647000   0.99658116     17.618336      17.715273    
    648000   1.0028795      17.265131      17.574952    
    649000   0.98990053     17.073745      17.513635    
    650000   0.95244875     17.245801      17.540573    
    651000   1.0324457      16.991267      17.418442    
    652000   0.99736858     17.255175      17.507226    
    653000   1.0113941      17.231115      17.539233    
    654000   0.97225031     16.837348      17.407283    
    655000   0.96126967     16.970384      17.192699    
    656000   1.021677       17.402396      17.127761    
    657000   1.0114297      17.270861      17.019682    
    658000   0.97017399     17.048424      16.949252    
    659000   1.0268646      17.094628      16.895536    
    660000   1.0169393      17.414266      16.669976    
    661000   0.97715996     17.009563      16.633733    
    662000   1.010694       17.122022      16.515501    
    663000   1.0132435      17.342964      16.616951    
    664000   1.0353808      16.874459      16.317006    
    665000   1.0129259      16.671285      16.172984    
    666000   1.0167096      17.098822      16.136554    
    667000   0.99082153     16.852555      16.169505    
    668000   1.0056323      17.374269      16.016073    
    669000   1.0217961      17.182209      16.019232    
    670000   0.99360955     17.443425      15.83824     
    671000   1.0124541      17.199205      15.618603    
    672000   1.0302657      16.552665      15.526756    
    673000   1.0095434      17.079054      15.477807    
    674000   1.0023321      16.853319      15.520384    
    675000   1.0070417      17.173277      15.247669    
    676000   1.0443486      17.625585      15.275314    
    677000   1.0039077      17.004557      15.306874    
    678000   0.99525347     16.86999       15.258677    
    679000   1.0526462      16.805253      15.299133    
    680000   1.0384695      17.08081       15.440093    
    681000   1.0292352      16.536102      15.691149    
    682000   1.0096046      17.07721       15.721374    
    683000   0.99836799     16.967825      15.513168    
    684000   0.98791622     16.678787      15.354142    
    685000   0.99803642     16.850002      15.447446    
    686000   1.0339644      16.696819      15.300441    
    687000   1.0157716      16.711844      15.416811    
    688000   0.9855185      17.509016      15.452885    
    689000   1.0108996      16.943483      15.347961    
    690000   1.0129537      17.410333      15.496617    
    691000   1.017414       16.593657      15.314827    
    692000   1.0171431      17.549311      15.395675    
    693000   0.99829751     16.544413      15.340036    
    694000   1.0056185      16.926925      15.273566    
    695000   0.98535279     17.083658      15.197165    
    696000   1.0045466      17.543434      15.056908    
    697000   1.0315466      17.01283       15.086711    
    698000   1.0049026      17.029895      14.871794    
    699000   1.0070262      17.111058      14.986033    
    700000   1.0027898      16.685853      15.094671    
    701000   0.98037138     16.694404      15.035759    
    702000   1.0401538      16.70546       15.04393     
    703000   0.98401984     16.961887      15.081236    
    704000   1.0259885      17.033018      15.216301    
    705000   0.97495475     17.347984      15.070069    
    706000   0.99769972     17.5264        15.080895    
    707000   1.0210941      17.111038      15.050552    
    708000   1.0216585      16.535309      15.112073    
    709000   1.0151048      17.231067      15.124182    
    710000   0.98989797     17.346788      15.028997    
    711000   0.97711489     17.411092      15.030521    
    712000   1.0297723      17.366124      14.834704    
    713000   0.99209578     16.998761      14.78082     
    714000   1.0092222      17.512058      14.578359    
    715000   0.97264009     17.899591      14.624354    
    716000   1.0804508      17.187029      14.388678    
    717000   0.98272616     16.918533      14.302972    
    718000   0.99127304     18.093894      14.314283    
    719000   0.97962482     17.497825      14.209827    
    720000   0.975229       17.523653      14.058395    
    721000   1.0010949      17.210632      14.061808    
    722000   0.99572008     17.360417      14.234393    
    723000   1.0405413      17.318995      14.319742    
    724000   1.0834775      17.25306       14.188394    
    725000   0.98147896     17.013086      14.372287    
    726000   0.98181195     17.157596      14.361303    
    727000   1.0002698      16.61925       14.449773    
    728000   1.0071347      17.0793        14.3841      
    729000   1.0114739      17.362286      14.427406    
    730000   0.98543313     17.538369      14.41415     
    731000   1.0165049      16.880325      14.599247    
    732000   0.98930304     16.736131      14.388753    
    733000   1.0145934      16.711654      14.225061    
    734000   1.0209377      17.213366      14.155422    
    735000   1.0188538      17.179985      14.116647    
    736000   1.0194719      17.172206      14.021667    
    737000   1.0099489      17.250967      13.922356    
    738000   1.0209821      17.304546      13.710565    
    739000   0.97779911     17.283865      13.492391    
    740000   1.0151138      16.830635      13.48689     
    741000   1.0286828      17.19206       13.548108    
    742000   0.99607145     17.187452      13.695492    
    743000   0.95392088     17.028605      13.633202    
    744000   0.99283452     17.109986      13.556333    
    745000   0.98855907     16.922936      13.481385    
    746000   0.99760583     16.986276      13.50416     
    747000   1.0188882      16.761008      13.536021    
    748000   0.99153451     16.815951      13.669706    
    749000   0.98087032     17.387306      13.563767    
    750000   1.0292055      17.037069      13.735564    
    751000   1.0320819      16.345211      13.727445    
    752000   1.017191       16.853863      13.830051    
    753000   1.0214863      17.219617      13.690007    
    754000   0.99828277     17.320273      13.622198    
    755000   0.98178921     16.982165      13.572278    
    756000   0.97981979     16.763247      13.602229    
    757000   1.0001497      17.131425      13.643138    
    758000   0.99584263     16.85487       13.447359    
    759000   0.99326301     16.996021      13.153943    
    760000   0.95755541     17.031432      13.128061    
    761000   0.99506188     17.434098      13.163235    
    762000   0.96728379     16.84485       13.036966    
    763000   0.99860976     17.01343       12.993535    
    764000   1.0361748      17.087012      12.967439    
    765000   0.98118688     16.60813       12.93721     
    766000   0.99908596     17.374051      12.692995    
    767000   1.0523017      17.220416      12.572223    
    768000   1.0320559      17.844086      12.407455    
    769000   0.99883629     16.805253      12.272332    
    770000   0.98722078     17.37597       12.239002    
    771000   1.0393959      17.435969      12.108518    
    772000   1.0271047      17.560012      11.936601    
    773000   0.95822603     16.9105        11.9149      
    774000   0.99022773     16.971345      11.799671    
    775000   1.0066358      17.432594      11.831173    
    776000   0.984802       17.002653      11.53745     
    777000   1.0027778      17.210944      11.48929     
    778000   0.99411103     17.038246      11.431448    
    779000   0.9806697      16.779444      11.29677     
    780000   1.0415417      17.099738      11.064074    
    781000   1.0139401      17.060452      11.052119    
    782000   1.0510839      17.392375      11.100207    
    783000   0.99688187     16.776474      11.021642    
    784000   1.0244099      17.756532      11.12645     
    785000   1.0192893      17.106731      11.001548    
    786000   0.97956479     17.009031      10.888875    
    787000   0.95693535     17.227033      10.713729    
    788000   1.0037511      16.94635       10.622017    
    789000   1.0199866      16.779702      10.611641    
    790000   1.0721535      17.570566      10.50452     
    791000   0.9481987      17.08459       10.445963    
    792000   1.0171436      16.736317      10.351413    
    793000   1.0262684      17.373468      10.221059    
    794000   1.0170592      16.888657      10.144456    
    795000   1.0154729      17.480575      9.9873702    
    796000   0.95989149     17.040936      10.001737    
    797000   1.0052979      16.654305      9.9455391    
    798000   1.0064049      17.019442      9.9639226    
    799000   1.0028441      16.589291      9.9111189    
    800000   0.99831985     17.431678      9.9413389    
    801000   0.99553883     17.135675      10.015989    
    802000   1.0418451      17.116891      10.011594    
    803000   0.94422155     16.474752      9.9868332    
    804000   1.0549917      17.704699      9.7222453    
    805000   0.97762497     16.877946      9.6925686    
    806000   1.0394648      17.354612      9.6730936    
    807000   0.97018794     16.917198      9.4302575    
    808000   1.0068834      17.129651      9.3728197    
    809000   1.0127795      16.537959      9.3984502    
    810000   1.0309361      17.163224      9.3975609    
    811000   1.0114727      17.320241      9.3166827    
    812000   0.98352947     17.726225      9.1326331    
    813000   0.99584722     17.245193      9.0697581    
    814000   1.0303068      16.987902      9.1189967    
    815000   0.98773919     16.865513      9.1507813    
    816000   1.0322519      17.536948      9.0904576    
    817000   1.005966       17.175017      9.0898824    
    818000   1.0015218      16.871555      8.8708178    
    819000   0.9833914      17.228535      8.876344     
    820000   1.0195462      17.282608      8.7204552    
    821000   1.0035622      16.818101      8.6021335    
    822000   1.0011055      17.244784      8.3461338    
    823000   0.98548929     17.071968      8.2631491    
    824000   0.99004523     16.940589      8.3150227    
    825000   1.0008849      16.853121      8.3591642    
    826000   0.99987092     16.43042       8.4276974    
    827000   0.99244533     16.694786      8.5161219    
    828000   1.0337383      17.228581      8.382077     
    829000   0.99993762     17.018427      8.2966579    
    830000   0.97979381     16.79388       8.2495323    
    831000   1.004923       17.303921      8.3488819    
    832000   1.0125207      16.952771      8.2483651    
    833000   0.99675316     17.464754      8.2680813    
    834000   0.97260286     16.716791      8.3027639    
    835000   0.96671255     17.657127      8.1482276    
    836000   1.0013201      16.792013      8.2562389    
    837000   0.96464874     16.835567      7.9998085    
    838000   0.97924008     17.012178      7.7887589    
    839000   1.0141429      16.981873      7.7070452    
    840000   1.0198408      16.48668       7.6021299    
    841000   0.98625251     16.716698      7.4106298    
    842000   0.97227484     16.670265      7.285392     
    843000   0.96230148     16.717364      7.1595962    
    844000   0.99361469     17.104348      7.0743006    
Fix halt condition for fix-id 3 met on step 845000 with value 6.712558774270213 (src/fix_halt.cpp:237)
    845000   1.0290758      17.079317      6.7125588    
Loop time of 941.173 on 2 procs for 745000 steps with 1201 atoms

Performance: 683912.577 tau/day, 791.565 timesteps/s
140.4% CPU use with 1 MPI tasks x 2 OpenMP threads

MPI task timing breakdown:
Section |  min time  |  avg time  |  max time  |%varavg| %total
---------------------------------------------------------------
Pair    | 307.07     | 307.07     | 307.07     |   0.0 | 32.63
Bond    | 18.271     | 18.271     | 18.271     |   0.0 |  1.94
Neigh   | 570.75     | 570.75     | 570.75     |   0.0 | 60.64
Comm    | 0.25519    | 0.25519    | 0.25519    |   0.0 |  0.03
Output  | 2.5733     | 2.5733     | 2.5733     |   0.0 |  0.27
Modify  | 39.569     | 39.569     | 39.569     |   0.0 |  4.20
Other   |            | 2.686      |            |       |  0.29

Nlocal:           1201 ave        1201 max        1201 min
Histogram: 1 0 0 0 0 0 0 0 0 0
Nghost:              0 ave           0 max           0 min
Histogram: 1 0 0 0 0 0 0 0 0 0
Neighs:         290254 ave      290254 max      290254 min
Histogram: 1 0 0 0 0 0 0 0 0 0

Total # of neighbors = 290254
Ave neighs/atom = 241.67694
Ave special neighs/atom = 1.9983347
Neighbor list builds = 6392
Dangerous builds = 0

# This simulation is done
# Move onto the next one
clear
  using 2 OpenMP thread(s) per MPI task
package omp 0
using multi-threaded neighbor list subroutines
next f
jump SELF

Total wall time: 3:06:10
