#atom_style bond #no stiffness
atom_style angle #with stiffness

boundary        p p p
###
# Pair interactions require lists of neighbours to be calculated
###

#neighbor 0.3 bin
neighbor 4 bin

neigh_modify every 1 delay 1 check yes
atom_modify sort 0 0
### Generate RESTART file, SPECIAL format, not a .txt file ###
### Useful if simulation crashes ###

restart 1000000 N3B4/trial2/restarts3/$f.restart
restart 1000000 N3B4/trial2/restarts3/bb200nuc3bl50bn4d30tot500V2.restart
#############################



### READ "start" data file ###

read_data N3B4/trial2/dats2/$f.dat
read_data N3B4/trial2/dats2/bb200nuc3bl50bn4d30tot500V2.dat
Reading data file ...
  orthogonal box = (-1000 -1000 -1000) to (1000 1000 1000)
  1 by 1 by 1 MPI processor grid
  reading atoms ...
  501 atoms
  scanning bonds ...
  3 = max bonds/atom
  scanning angles ...
  6 = max angles/atom
  reading bonds ...
  500 bonds
  reading angles ...
  508 angles
Finding 1-2 1-3 1-4 neighbors ...
  special bond factors lj:    0        0        0       
  special bond factors coul:  0        0        0       
     4 = max # of 1-2 neighbors
     4 = max # of 1-3 neighbors
     8 = max # of 1-4 neighbors
    12 = max # of special neighbors
  special bonds CPU = 0.002 seconds
  read_data CPU = 0.133 seconds

######################

### READ "REstart" data file ###

######################



###
# Define groups (atom type 1 is group 'all')
###
group all type 1
501 atoms in group all


###
# Dump configs - "simple dumpings"
###

###
# Dump configs + box coords
###

dump   1   all   custom   1000  N3B4/trial2/trjs3/$f.lammpstrj  id  x y z  ix iy iz
dump   1   all   custom   1000  N3B4/trial2/trjs3/bb200nuc3bl50bn4d30tot500V2.lammpstrj  id  x y z  ix iy iz
dump_modify   1   format line "%d %.5f %.5f %.5f %d %d %d"

########################################################################


###################################################################
# Stiffness term
#
# E = K * (1+cos(theta)), K>0
#
angle_style   cosine
#change this coefficient to change stiffness (e.g. 1,5,10)
angle_coeff   1 1.0
###################################################################

###################################################################
# Pair interaction between non-bonded atoms
#
#  Lennard-Jones 12-6 potential with cutoff:
#  potential E=4epsilon[ (sigma/r)^12 - (sigma/r)^6]  for r<r_cut
#
#  1.12246 = 2^(1/6) is the minimum of the potential


pair_style      lj/cut 1.12246152962189
#pair_style      lj/cut 3

#
#  pair_modify shift yes adds a constant to the potential such

#  that E(r_cut)=0. Forces remains unchanged.
#

pair_modify     shift yes

#
#  pair_coeff for lj/cut, specify 4:
#    * atom type interacting with
#    * atom type
#    * epsilon (energy units)
#    * sigma (distance units)
#

pair_coeff      1 1 1.0 1.0
###################################################################

###################################################################
# Pair interaction between non-bonded atoms
#
#  soft potential, for PUSHING apart overlapping atoms
#  potential E=A*(1 + cos(pi*r/r_c))
#
#  1.12246 = 2^(1/6) is the cut-off r_c

#pair_style     soft 1.12246152962189

#
#  pair_coeff for soft, specify 3:
#    * atom type interacting with
#    * atom type
#    * A
#
#

#pair_coeff      1 1 100.0
###################################################################

###################################################################
# Pair interaction between bonded atoms
#
# Fene potential + Lennard Jones 12-6:

#
#  E= - 0.5 K R0^2 ln[ 1- (r/R0)^2]
#     + 4epsilon[ (sigma/r)^12 - (sigma/r)^6] + epsilon
#

bond_style   fene


#
# For style fene, specify:
#   * bond type
#   * K (energy/distance^2)
#   * R0 (distance)
#   * epsilon (energy)  (LJ component)
#   * sigma (distance)  (LJ component)
#


special_bonds fene #<=== I M P O R T A N T (new command)
Finding 1-2 1-3 1-4 neighbors ...
  special bond factors lj:    0        1        1       
  special bond factors coul:  0        1        1       
     4 = max # of 1-2 neighbors
    12 = max # of special neighbors
  special bonds CPU = 0.001 seconds

bond_coeff   1   30   2   1.0   1.0


###################################################

###################################################################
# Pair interaction between bonded atoms
#
# Harmonic potential:
#
#  E= K * (R-R0)^2
#

#bond_style   harmonic

#
# For style harmonic, specify:
#   * bond type
#   * K (energy/distance^2)
#   * R0 (distance)
#

#bond_coeff   1   60.0   1.0
#bond_coeff   2   harmonic 0.1   1.0

###################################################
compute 1 all gyration
variable rog equal c_1
#compute 2 all coord/atom cutoff 1.1

#dump 2 all custom 10000 contact_number.dump id c_2


###
# Set up fixes
###
thermo_style   custom   step  temp enthalpy c_1
fix 1 all nve   ###NVE ensemble

fix 2 all   langevin   1.0 1.0 1.0  778655   ###Langevin integrator Tstart Tstop 1/friction rndseed


##### Sample thermodynamic info  (temperature, energy, pressure, etc.) #####
thermo 1000









############################################################################

###
# set timestep of integrator

timestep 0.01

###
# run integration for a number of steps
###
#run 0
#variable r equal c_1
#if "$r < 63.1" then "quit 1"

# lj potential minimum, cause molecule to explore
run 100000
Generated 0 of 0 mixed pair_coeff terms from geometric mixing rule
Last active /omp style is angle_style cosine/omp
Neighbor list info ...
  update: every = 1 steps, delay = 1 steps, check = yes
  max neighbors/atom: 2000, page size: 100000
  master list distance cutoff = 5.1224615
  ghost atom cutoff = 5.1224615
  binsize = 2.5612308, bins = 781 781 781
  1 neighbor lists, perpetual/occasional/extra = 1 0 0
  (1) pair lj/cut/omp, perpetual
      attributes: half, newton on, omp
      pair build: half/bin/newton/omp
      stencil: half/bin/3d
      bin: standard
WARNING: Communication cutoff 5.12246152962189 is shorter than a bond length based estimate of 5.455. This may lead to errors. (src/comm.cpp:723)
Per MPI rank memory allocation (min/avg/max) = 1861 | 1861 | 1861 Mbytes
   Step          Temp         Enthalpy         c_1      
         0   0              13.245084      42.770099    
      1000   0.98291646     18.950416      41.482776    
      2000   0.99273403     19.33404       40.506496    
      3000   1.0001732      19.427855      39.709045    
      4000   0.98532453     19.740871      38.907293    
      5000   0.95960968     19.426481      38.455794    
      6000   0.99528398     20.149233      38.16112     
      7000   0.94874175     19.410144      37.93307     
      8000   0.99740943     19.995393      37.432547    
      9000   1.0710254      20.315517      36.896747    
     10000   1.0029207      20.074722      36.609377    
     11000   0.96494974     20.318868      36.203045    
     12000   0.99593323     20.129697      36.026514    
     13000   0.95320182     20.136213      35.671492    
     14000   0.98351812     20.125355      35.581398    
     15000   0.97965211     20.343462      35.816863    
     16000   1.0002603      20.725848      35.73732     
     17000   1.0258594      20.406687      35.724338    
     18000   0.98624807     20.111957      35.262472    
     19000   1.0460686      19.610447      35.413786    
     20000   1.0076963      20.5101        35.271496    
     21000   1.0346552      20.43534       35.013802    
     22000   1.0208875      20.166703      34.870365    
     23000   0.96266288     19.514718      34.49595     
     24000   1.010551       21.006707      34.326092    
     25000   1.04468        20.874813      34.287788    
     26000   1.001703       20.520927      34.257992    
     27000   0.996884       20.572231      34.206822    
     28000   0.98170853     20.795546      34.034029    
     29000   0.99880156     19.849751      33.936516    
     30000   0.96875244     19.381797      33.739453    
     31000   1.0182338      20.35512       33.3654      
     32000   1.0175375      19.980487      33.334639    
     33000   0.98310563     20.595198      33.165785    
     34000   0.96348899     20.384293      32.892065    
     35000   1.0592831      21.240533      32.899057    
     36000   0.98089879     20.254082      32.608221    
     37000   0.99442112     19.803693      32.292365    
     38000   1.0240008      20.123279      32.250447    
     39000   1.0342648      20.252472      32.108307    
     40000   0.99519089     20.467656      31.893061    
     41000   0.99374359     20.059402      31.999591    
     42000   1.0086838      20.168192      31.896619    
     43000   0.98966568     20.503652      31.92945     
     44000   1.0802862      20.997704      31.850894    
     45000   1.0535403      20.338625      32.083513    
     46000   0.9916767      20.133563      31.738547    
     47000   1.0141051      20.14568       31.529956    
     48000   1.0455338      20.858868      31.56802     
     49000   1.011989       20.36658       31.398154    
     50000   0.9536947      19.758596      31.648633    
     51000   0.99175293     20.455529      31.6567      
     52000   1.0146068      20.295152      31.460157    
     53000   0.9974738      20.670901      31.338102    
     54000   1.002854       19.972866      31.24965     
     55000   0.98294868     19.842634      31.349497    
     56000   0.98218645     21.076169      31.237957    
     57000   1.0044971      20.605041      30.904143    
     58000   0.992168       20.590858      30.949641    
     59000   0.96161366     21.098133      30.901135    
     60000   0.97754247     20.459206      30.648092    
     61000   1.0739213      21.004043      30.25974     
     62000   0.99022376     19.825913      30.056643    
     63000   0.96107381     20.759422      29.757926    
     64000   1.0758822      21.021189      30.078491    
     65000   0.99395544     20.649096      29.894794    
     66000   1.0508144      20.869892      29.83505     
     67000   1.0341199      20.44544       29.661211    
     68000   1.0527959      21.420484      29.700687    
     69000   1.000529       20.857675      29.37194     
     70000   0.9609876      20.072159      29.084428    
     71000   0.97763647     19.616959      28.781649    
     72000   0.93288861     19.724577      28.302702    
     73000   0.95990395     20.623141      28.376224    
     74000   1.0197976      19.489331      28.272184    
     75000   0.97825801     20.663718      28.086423    
     76000   1.0088791      20.921357      28.009081    
     77000   0.97806339     20.346635      27.968636    
     78000   0.99174362     21.352826      28.138801    
     79000   1.0685198      21.690297      28.024407    
     80000   0.99375164     21.019131      27.834311    
     81000   1.0524934      21.165753      27.333643    
     82000   0.95331335     20.336025      27.609564    
     83000   1.0443968      20.956226      27.332502    
     84000   1.0006186      20.441524      27.419297    
     85000   0.99416486     20.599928      27.16553     
     86000   0.99869196     20.922455      27.370935    
     87000   0.98022674     20.939298      27.489067    
     88000   0.99877809     20.579216      27.440497    
     89000   1.0296772      20.043435      27.226565    
     90000   0.96454407     20.50484       27.034479    
     91000   1.0203763      20.897148      26.999641    
     92000   0.94361306     20.559541      26.910969    
     93000   1.040639       20.302929      27.070862    
     94000   0.93958805     20.420711      27.37765     
     95000   1.0386316      20.688963      27.679624    
     96000   0.96661742     19.954668      27.727407    
     97000   0.99451706     20.081647      27.808416    
     98000   1.0283692      21.179179      27.650763    
     99000   1.0036227      20.508013      27.574333    
    100000   1.0350285      21.204785      27.702853    
Loop time of 414.127 on 2 procs for 100000 steps with 501 atoms

Performance: 208631.723 tau/day, 241.472 timesteps/s
101.7% CPU use with 1 MPI tasks x 2 OpenMP threads

MPI task timing breakdown:
Section |  min time  |  avg time  |  max time  |%varavg| %total
---------------------------------------------------------------
Pair    | 0.94965    | 0.94965    | 0.94965    |   0.0 |  0.23
Bond    | 1.3753     | 1.3753     | 1.3753     |   0.0 |  0.33
Neigh   | 408.42     | 408.42     | 408.42     |   0.0 | 98.62
Comm    | 0.033222   | 0.033222   | 0.033222   |   0.0 |  0.01
Output  | 0.29367    | 0.29367    | 0.29367    |   0.0 |  0.07
Modify  | 2.8454     | 2.8454     | 2.8454     |   0.0 |  0.69
Other   |            | 0.2125     |            |       |  0.05

Nlocal:            501 ave         501 max         501 min
Histogram: 1 0 0 0 0 0 0 0 0 0
Nghost:              0 ave           0 max           0 min
Histogram: 1 0 0 0 0 0 0 0 0 0
Neighs:           5147 ave        5147 max        5147 min
Histogram: 1 0 0 0 0 0 0 0 0 0

Total # of neighbors = 5147
Ave neighs/atom = 10.273453
Ave special neighs/atom = 1.996008
Neighbor list builds = 1111
Dangerous builds = 0

# Replace lj potential, now collapse
pair_style      lj/cut 3

# Cutoff simul when gyration under 7
# Variable created with equal requires v_ + 'name'
fix 3 all halt 1000 v_rog < 7

run 3000000
Generated 0 of 0 mixed pair_coeff terms from geometric mixing rule
Last active /omp style is angle_style cosine/omp
Per MPI rank memory allocation (min/avg/max) = 1861 | 1861 | 1861 Mbytes
   Step          Temp         Enthalpy         c_1      
    100000   1.0350285      20.236048      27.702853    
    101000   0.97980775     18.901953      27.693038    
    102000   0.97550824     19.977689      27.990806    
    103000   0.97102503     19.37949       27.688403    
    104000   1.0075578      19.566452      27.338332    
    105000   0.98461289     18.600574      27.185916    
    106000   1.1411286      19.036736      27.078033    
    107000   1.0238725      18.760044      27.04013     
    108000   1.0017664      18.165066      26.842329    
    109000   1.0080193      17.704218      26.704166    
    110000   0.8947164      18.433367      26.22696     
    111000   0.96859766     17.538727      26.15326     
    112000   0.99440785     17.686584      26.148772    
    113000   1.0481243      18.103882      25.944142    
    114000   1.0196582      17.959682      25.974708    
    115000   1.0117813      17.590279      25.765192    
    116000   0.96719        17.558534      25.725478    
    117000   0.99956973     18.115882      25.515443    
    118000   1.1289144      18.031739      25.168719    
    119000   0.97798417     18.075756      24.909177    
    120000   1.0457281      17.885877      24.815894    
    121000   1.0311447      17.56992       24.776921    
    122000   0.98391107     18.475569      24.826666    
    123000   1.0230705      18.254384      24.667662    
    124000   1.0179331      17.566525      24.582309    
    125000   1.0320127      17.535783      24.478334    
    126000   1.0098557      18.287152      24.331375    
    127000   0.99018193     18.472764      23.902097    
    128000   0.97472756     17.737328      23.728674    
    129000   1.0410058      17.844909      23.585555    
    130000   1.0372148      17.767921      23.452837    
    131000   0.98292124     17.842575      23.125798    
    132000   0.93105918     17.855323      23.105959    
    133000   0.98495469     18.050215      22.786394    
    134000   0.95915936     17.20921       22.582633    
    135000   0.98393053     17.836405      22.393345    
    136000   1.0286365      17.855883      22.194539    
    137000   1.0811423      17.942397      22.136644    
    138000   1.0292307      18.247182      22.009614    
    139000   1.045007       18.149105      21.60529     
    140000   1.022718       17.767846      21.462036    
    141000   0.99837719     17.880831      21.44282     
    142000   0.96330391     17.213964      21.667639    
    143000   1.0189631      18.154912      21.470939    
    144000   0.99402217     18.466547      21.702355    
    145000   1.0228146      18.156602      21.495934    
    146000   0.99234594     17.170398      21.588707    
    147000   1.0016057      18.422707      21.604052    
    148000   0.98651426     17.942928      21.547279    
    149000   1.005448       17.864108      21.508107    
    150000   0.98945772     18.1373        21.419386    
    151000   1.0219518      17.435213      21.347783    
    152000   0.98872679     16.830248      21.120642    
    153000   1.0082318      17.674433      20.962042    
    154000   0.98751374     17.501694      20.912232    
    155000   0.96401184     17.906922      21.093339    
    156000   0.97209474     17.516471      21.057722    
    157000   1.0432227      18.375925      21.085185    
    158000   1.0361016      18.363779      20.803571    
    159000   0.99477748     18.452305      20.614428    
    160000   1.0010781      17.438138      20.693582    
    161000   1.0040939      17.791658      20.549495    
    162000   1.0419494      18.320735      20.44338     
    163000   1.0179633      17.995767      20.163701    
    164000   1.0187791      18.13042       20.089965    
    165000   1.1098526      17.254478      19.996908    
    166000   1.0642916      18.650507      19.564413    
    167000   1.0056525      17.492466      19.470866    
    168000   0.98010889     17.669815      19.079536    
    169000   1.0028514      17.451547      18.628449    
    170000   1.0561641      18.484225      18.150939    
    171000   0.98006418     17.022174      17.991809    
    172000   1.0204284      18.016713      17.558057    
    173000   0.98926262     18.35467       17.524748    
    174000   1.0656289      17.593107      17.567093    
    175000   0.9281947      17.735838      17.574544    
    176000   0.9619164      17.701227      17.379618    
    177000   1.0067613      18.15873       17.467396    
    178000   1.0324433      17.57216       17.335744    
    179000   1.0164056      16.99667       17.287905    
    180000   1.0323867      17.57823       17.394995    
    181000   0.99948146     18.390792      17.496146    
    182000   0.95418395     18.424465      17.587393    
    183000   1.0459635      17.406312      17.838115    
    184000   1.0499012      17.143514      17.993135    
    185000   0.962923       17.765229      17.888734    
    186000   0.97996855     17.421375      17.399562    
    187000   1.0385759      18.318546      17.281532    
    188000   1.0299975      18.631646      17.209358    
    189000   0.99720325     18.090023      16.736333    
    190000   1.0466043      18.20292       16.53527     
    191000   1.0164429      17.667767      16.342394    
    192000   1.0138662      18.353104      16.25929     
    193000   0.9836089      17.776988      16.064576    
    194000   0.96461996     17.818044      15.995717    
    195000   1.0189877      18.073119      16.220274    
    196000   1.0020746      17.625487      16.424039    
    197000   0.93195095     16.707808      16.400318    
    198000   1.0559573      17.882145      16.209373    
    199000   1.0281864      17.662103      16.034889    
    200000   0.97151014     18.367898      16.03713     
    201000   0.95818608     17.330579      15.718604    
    202000   1.0540749      18.013164      15.622884    
    203000   1.059281       18.509087      15.551474    
    204000   1.0055899      18.350869      15.447561    
    205000   0.97891017     17.936675      15.209457    
    206000   1.0210472      18.33408       14.971814    
    207000   1.1011008      17.836474      14.609065    
    208000   0.98842864     17.760494      14.444596    
    209000   1.0344779      16.905284      14.370295    
    210000   0.96669364     16.920083      14.022107    
    211000   1.0148243      17.126572      13.836648    
    212000   0.91605778     17.264306      13.556805    
    213000   0.986773       17.574851      13.327313    
    214000   0.96494152     18.135683      13.235437    
    215000   0.97956909     17.563505      13.433536    
    216000   0.97957167     18.023225      13.259423    
    217000   1.0555094      18.5287        13.510794    
    218000   0.97935183     17.763601      13.318141    
    219000   0.99743514     18.08486       13.023881    
    220000   1.0094982      16.884131      12.884827    
    221000   1.0176366      17.185826      12.818791    
    222000   0.91884698     17.914599      12.778934    
    223000   1.0586294      16.899619      12.539622    
    224000   1.0044736      17.604702      12.444451    
    225000   0.9690282      18.181159      12.136314    
    226000   0.96047678     17.258932      11.670409    
    227000   1.0211823      17.447097      11.329719    
    228000   1.0576581      18.700182      11.111408    
    229000   0.94928593     18.179946      11.165547    
    230000   0.97518123     18.070403      10.851133    
    231000   1.033496       17.66639       10.811512    
    232000   0.96325599     17.928127      10.642733    
    233000   1.0195201      17.037087      10.351323    
    234000   1.0316331      17.459786      9.912194     
    235000   0.99113232     17.592872      9.9704168    
    236000   0.93866559     17.112399      10.025362    
    237000   1.0194527      17.128758      10.097096    
    238000   1.0317778      16.378542      9.9059861    
    239000   0.91987548     17.642837      9.8420696    
    240000   1.0212595      17.361389      9.8328654    
    241000   0.9863975      17.150959      9.5072252    
    242000   1.0569947      17.623465      9.4924255    
    243000   1.0414884      17.436131      9.4922426    
    244000   1.0656563      17.256145      9.6088214    
    245000   1.0044652      17.448545      9.3981031    
    246000   1.0080848      17.070443      9.0411342    
    247000   0.96285518     17.468708      9.2611933    
    248000   0.96200678     16.609094      9.2616523    
    249000   0.96044859     17.324903      9.1563147    
    250000   1.0183065      16.713707      9.0274525    
    251000   0.93421933     17.350258      8.8715085    
    252000   0.97880127     18.351659      8.6766738    
    253000   1.042331       17.71772       8.9208945    
    254000   1.0353902      18.232274      8.7129892    
    255000   1.0017004      17.368153      8.7061458    
    256000   1.0491767      17.775665      8.5327947    
    257000   1.0989455      18.523587      8.4387398    
    258000   1.0088111      18.155923      8.1602602    
    259000   0.95903696     17.83027       8.076929     
    260000   1.0333169      17.466438      7.9706924    
    261000   1.0453507      17.657786      7.6992662    
    262000   0.96958566     17.138829      7.3853215    
    263000   0.96720795     17.274725      7.2087715    
    264000   1.0272464      17.446011      7.0397201    
Fix halt condition for fix-id 3 met on step 265000 with value 6.9072952861944525 (src/fix_halt.cpp:237)
    265000   0.94605315     17.118545      6.9072953    
Loop time of 219.411 on 2 procs for 165000 steps with 501 atoms

Performance: 649740.554 tau/day, 752.015 timesteps/s
116.1% CPU use with 1 MPI tasks x 2 OpenMP threads

MPI task timing breakdown:
Section |  min time  |  avg time  |  max time  |%varavg| %total
---------------------------------------------------------------
Pair    | 25.746     | 25.746     | 25.746     |   0.0 | 11.73
Bond    | 2.3747     | 2.3747     | 2.3747     |   0.0 |  1.08
Neigh   | 185.6      | 185.6      | 185.6      |   0.0 | 84.59
Comm    | 0.055745   | 0.055745   | 0.055745   |   0.0 |  0.03
Output  | 0.4764     | 0.4764     | 0.4764     |   0.0 |  0.22
Modify  | 4.7666     | 4.7666     | 4.7666     |   0.0 |  2.17
Other   |            | 0.392      |            |       |  0.18

Nlocal:            501 ave         501 max         501 min
Histogram: 1 0 0 0 0 0 0 0 0 0
Nghost:              0 ave           0 max           0 min
Histogram: 1 0 0 0 0 0 0 0 0 0
Neighs:          64126 ave       64126 max       64126 min
Histogram: 1 0 0 0 0 0 0 0 0 0

Total # of neighbors = 64126
Ave neighs/atom = 127.99601
Ave special neighs/atom = 1.996008
Neighbor list builds = 1289
Dangerous builds = 0

# This simulation is done
# Move onto the next one
clear
  using 2 OpenMP thread(s) per MPI task
package omp 0
using multi-threaded neighbor list subroutines
next f
jump SELF

###
# Reference paper:
# K. Kremer and G. S. Grest
# Dynamics of entangled linear polymer melts: A molecular-dynamics simulation
# J Chem Phys 92, 5057 (1990)

##################################
# MIHIR: for branched polymers
# LJ minimum first to expand and explore, then collapse
###

###
# Looping through the various N3B4 polymers to simulate,
# define variables to switch through
variable f index bb40nuc3bl10bn4d30tot100V2 bb80nuc3bl20bn4d30tot200V2 bb120nuc3bl30bn4d30tot300V2 bb160nuc3bl40bn4d30tot400V2 bb200nuc3bl50bn4d30tot500V2 bb240nuc3bl60bn4d30tot600V2 bb280nuc3bl70bn4d30tot700V2 bb320nuc3bl80bn4d30tot800V2 bb360nuc3bl90bn4d30tot900V2 bb400nuc3bl100bn4d30tot1000V2 bb440nuc3bl110bn4d30tot1100V2 bb480nuc3bl120bn4d30tot1200V2
# variable f index bb40nuc3bl10bn4d30tot100V3 bb80nuc3bl20bn4d30tot200V3 bb120nuc3bl30bn4d30tot300V3 bb160nuc3bl40bn4d30tot400V3 bb200nuc3bl50bn4d30tot500V3 bb240nuc3bl60bn4d30tot600V3 bb280nuc3bl70bn4d30tot700V3 bb320nuc3bl80bn4d30tot800V3 bb360nuc3bl90bn4d30tot900V3 bb400nuc3bl100bn4d30tot1000V3 bb440nuc3bl110bn4d30tot1100V3 bb480nuc3bl120bn4d30tot1200V3
# variable f index bb40nuc3bl10bn4d30tot100 bb80nuc3bl20bn4d30tot200 bb120nuc3bl30bn4d30tot300 bb160nuc3bl40bn4d30tot400 bb200nuc3bl50bn4d30tot500 bb240nuc3bl60bn4d30tot600 bb280nuc3bl70bn4d30tot700 bb320nuc3bl80bn4d30tot800 bb360nuc3bl90bn4d30tot900 bb400nuc3bl100bn4d30tot1000 bb440nuc3bl110bn4d30tot1100 bb480nuc3bl120bn4d30tot1200
###


###
# Box and units  (use LJ units and periodic boundaries)
###

units lj
log N3B4/trial2/logs3/$f.log
log N3B4/trial2/logs3/bb240nuc3bl60bn4d30tot600V2.log
