#atom_style bond #no stiffness
atom_style angle #with stiffness

boundary        p p p
###
# Pair interactions require lists of neighbours to be calculated
###

#neighbor 0.3 bin
neighbor 4 bin

neigh_modify every 1 delay 1 check yes
atom_modify sort 0 0
### Generate RESTART file, SPECIAL format, not a .txt file ###
### Useful if simulation crashes ###

restart 1000000 N3B4/trial2/restarts3/$f.restart
restart 1000000 N3B4/trial2/restarts3/bb360nuc3bl90bn4d30tot900V2.restart
#############################



### READ "start" data file ###

read_data N3B4/trial2/dats2/$f.dat
read_data N3B4/trial2/dats2/bb360nuc3bl90bn4d30tot900V2.dat
Reading data file ...
  orthogonal box = (-1000 -1000 -1000) to (1000 1000 1000)
  1 by 1 by 1 MPI processor grid
  reading atoms ...
  901 atoms
  scanning bonds ...
  3 = max bonds/atom
  scanning angles ...
  6 = max angles/atom
  reading bonds ...
  900 bonds
  reading angles ...
  908 angles
Finding 1-2 1-3 1-4 neighbors ...
  special bond factors lj:    0        0        0       
  special bond factors coul:  0        0        0       
     4 = max # of 1-2 neighbors
     4 = max # of 1-3 neighbors
     8 = max # of 1-4 neighbors
    12 = max # of special neighbors
  special bonds CPU = 0.004 seconds
  read_data CPU = 0.225 seconds

######################

### READ "REstart" data file ###

######################



###
# Define groups (atom type 1 is group 'all')
###
group all type 1
901 atoms in group all


###
# Dump configs - "simple dumpings"
###

###
# Dump configs + box coords
###

dump   1   all   custom   1000  N3B4/trial2/trjs3/$f.lammpstrj  id  x y z  ix iy iz
dump   1   all   custom   1000  N3B4/trial2/trjs3/bb360nuc3bl90bn4d30tot900V2.lammpstrj  id  x y z  ix iy iz
dump_modify   1   format line "%d %.5f %.5f %.5f %d %d %d"

########################################################################


###################################################################
# Stiffness term
#
# E = K * (1+cos(theta)), K>0
#
angle_style   cosine
#change this coefficient to change stiffness (e.g. 1,5,10)
angle_coeff   1 1.0
###################################################################

###################################################################
# Pair interaction between non-bonded atoms
#
#  Lennard-Jones 12-6 potential with cutoff:
#  potential E=4epsilon[ (sigma/r)^12 - (sigma/r)^6]  for r<r_cut
#
#  1.12246 = 2^(1/6) is the minimum of the potential


pair_style      lj/cut 1.12246152962189
#pair_style      lj/cut 3

#
#  pair_modify shift yes adds a constant to the potential such

#  that E(r_cut)=0. Forces remains unchanged.
#

pair_modify     shift yes

#
#  pair_coeff for lj/cut, specify 4:
#    * atom type interacting with
#    * atom type
#    * epsilon (energy units)
#    * sigma (distance units)
#

pair_coeff      1 1 1.0 1.0
###################################################################

###################################################################
# Pair interaction between non-bonded atoms
#
#  soft potential, for PUSHING apart overlapping atoms
#  potential E=A*(1 + cos(pi*r/r_c))
#
#  1.12246 = 2^(1/6) is the cut-off r_c

#pair_style     soft 1.12246152962189

#
#  pair_coeff for soft, specify 3:
#    * atom type interacting with
#    * atom type
#    * A
#
#

#pair_coeff      1 1 100.0
###################################################################

###################################################################
# Pair interaction between bonded atoms
#
# Fene potential + Lennard Jones 12-6:

#
#  E= - 0.5 K R0^2 ln[ 1- (r/R0)^2]
#     + 4epsilon[ (sigma/r)^12 - (sigma/r)^6] + epsilon
#

bond_style   fene


#
# For style fene, specify:
#   * bond type
#   * K (energy/distance^2)
#   * R0 (distance)
#   * epsilon (energy)  (LJ component)
#   * sigma (distance)  (LJ component)
#


special_bonds fene #<=== I M P O R T A N T (new command)
Finding 1-2 1-3 1-4 neighbors ...
  special bond factors lj:    0        1        1       
  special bond factors coul:  0        1        1       
     4 = max # of 1-2 neighbors
    12 = max # of special neighbors
  special bonds CPU = 0.001 seconds

bond_coeff   1   30   2   1.0   1.0


###################################################

###################################################################
# Pair interaction between bonded atoms
#
# Harmonic potential:
#
#  E= K * (R-R0)^2
#

#bond_style   harmonic

#
# For style harmonic, specify:
#   * bond type
#   * K (energy/distance^2)
#   * R0 (distance)
#

#bond_coeff   1   60.0   1.0
#bond_coeff   2   harmonic 0.1   1.0

###################################################
compute 1 all gyration
variable rog equal c_1
#compute 2 all coord/atom cutoff 1.1

#dump 2 all custom 10000 contact_number.dump id c_2


###
# Set up fixes
###
thermo_style   custom   step  temp enthalpy c_1
fix 1 all nve   ###NVE ensemble

fix 2 all   langevin   1.0 1.0 1.0  778655   ###Langevin integrator Tstart Tstop 1/friction rndseed


##### Sample thermodynamic info  (temperature, energy, pressure, etc.) #####
thermo 1000









############################################################################

###
# set timestep of integrator

timestep 0.01

###
# run integration for a number of steps
###
#run 0
#variable r equal c_1
#if "$r < 63.1" then "quit 1"

# lj potential minimum, cause molecule to explore
run 100000
Generated 0 of 0 mixed pair_coeff terms from geometric mixing rule
Last active /omp style is angle_style cosine/omp
Neighbor list info ...
  update: every = 1 steps, delay = 1 steps, check = yes
  max neighbors/atom: 2000, page size: 100000
  master list distance cutoff = 5.1224615
  ghost atom cutoff = 5.1224615
  binsize = 2.5612308, bins = 781 781 781
  1 neighbor lists, perpetual/occasional/extra = 1 0 0
  (1) pair lj/cut/omp, perpetual
      attributes: half, newton on, omp
      pair build: half/bin/newton/omp
      stencil: half/bin/3d
      bin: standard
WARNING: Communication cutoff 5.12246152962189 is shorter than a bond length based estimate of 5.455. This may lead to errors. (src/comm.cpp:723)
Per MPI rank memory allocation (min/avg/max) = 1862 | 1862 | 1862 Mbytes
   Step          Temp         Enthalpy         c_1      
         0   0              13.249112      83.561704    
      1000   0.98400052     18.556395      82.758987    
      2000   1.0177043      18.789796      81.950208    
      3000   1.0054523      18.364665      81.430117    
      4000   1.0250054      19.070263      80.803776    
      5000   0.97492858     19.236161      80.385408    
      6000   1.0227996      19.607402      80.111895    
      7000   1.0698348      19.623317      79.671838    
      8000   1.0477305      19.533507      79.072579    
      9000   1.0445258      19.570604      78.674294    
     10000   1.0413363      19.534449      78.21035     
     11000   1.0221291      19.88688       77.609587    
     12000   1.0147742      19.62727       77.428507    
     13000   1.0302316      19.721301      77.246543    
     14000   0.95851612     19.605233      76.92206     
     15000   0.97327681     19.364499      76.660016    
     16000   1.0266137      19.893947      76.482516    
     17000   0.9914123      19.83484       76.319387    
     18000   0.96856131     20.134594      76.280789    
     19000   0.93713615     19.761416      75.732214    
     20000   1.0461667      19.859474      75.309369    
     21000   0.97251602     20.018431      75.030247    
     22000   0.97488862     19.947042      74.622839    
     23000   0.96680381     19.594525      74.448288    
     24000   1.0156971      20.24333       74.337524    
     25000   0.96216377     19.739947      73.871503    
     26000   0.99839227     20.068465      73.654341    
     27000   1.0463586      20.798839      73.471683    
     28000   0.98485522     20.65476       73.165415    
     29000   0.95126356     19.679613      72.89905     
     30000   0.98066835     20.132722      72.616964    
     31000   1.0333449      20.111869      72.308461    
     32000   1.0116557      20.062781      72.209586    
     33000   0.98042825     19.916987      72.067916    
     34000   0.96416866     20.60148       72.030199    
     35000   1.013641       20.343289      71.743981    
     36000   0.98646656     20.21336       71.497734    
     37000   1.0187502      20.912219      71.148772    
     38000   1.0653313      19.927674      71.079014    
     39000   0.99488486     20.622714      70.821671    
     40000   1.0542986      20.412164      70.239964    
     41000   1.0149659      20.116183      70.28281     
     42000   1.0053497      20.321245      70.378641    
     43000   0.98959573     20.275811      70.35949     
     44000   0.95943994     20.236764      69.990892    
     45000   0.98345217     19.844705      69.859817    
     46000   1.0216631      20.506027      69.835287    
     47000   0.99000651     20.37497       69.59068     
     48000   1.0281827      20.078132      69.546863    
     49000   1.0104176      20.179464      69.674189    
     50000   0.99064111     20.240252      69.604714    
     51000   1.0202636      20.497001      69.635719    
     52000   1.0463731      20.228932      69.637069    
     53000   0.98100109     20.152908      69.373726    
     54000   1.0094787      19.895861      69.263205    
     55000   0.99928642     21.130427      69.515232    
     56000   0.98552871     20.955113      69.373665    
     57000   0.99942455     20.707284      69.321793    
     58000   1.000269       19.969543      69.424914    
     59000   1.0143726      20.278493      69.237872    
     60000   0.98612387     20.64037       69.065446    
     61000   0.99603609     20.52305       68.993501    
     62000   1.0222696      20.72553       68.815855    
     63000   1.0457813      20.521379      68.736566    
     64000   1.0060375      20.565195      68.445463    
     65000   0.98712772     20.447321      68.25764     
     66000   0.99776501     20.166478      68.142124    
     67000   1.0000032      20.644278      68.062356    
     68000   0.9542757      20.294871      68.157476    
     69000   1.0460215      20.625344      68.025655    
     70000   0.98583491     21.315623      67.89325     
     71000   0.96828673     20.354192      67.788077    
     72000   1.0151906      20.731262      67.690266    
     73000   1.0350976      20.377975      67.611582    
     74000   0.99358934     20.479101      67.706518    
     75000   0.99336585     20.023569      67.555185    
     76000   0.99894668     20.653295      67.486054    
     77000   1.0009056      20.193726      67.307249    
     78000   0.96643491     20.580515      67.201267    
     79000   1.0374292      20.398371      67.14131     
     80000   0.9627389      20.399928      67.032063    
     81000   1.0170606      20.421286      67.016196    
     82000   1.0253794      20.470428      66.861618    
     83000   0.98012012     20.426933      67.051188    
     84000   1.0161138      20.446132      67.046154    
     85000   0.99551475     20.852218      67.102658    
     86000   0.99643542     20.025226      66.943797    
     87000   1.0235788      20.609402      67.030996    
     88000   0.98772487     20.45862       66.81375     
     89000   0.99032411     20.17031       66.638033    
     90000   0.98537903     20.711616      66.452007    
     91000   0.97739976     20.467022      65.946191    
     92000   0.96075837     20.305208      65.670049    
     93000   0.99046011     20.129207      65.576429    
     94000   0.93617829     20.5062        65.509963    
     95000   1.0408759      20.22677       65.309445    
     96000   0.97591628     20.455059      65.312734    
     97000   0.95238768     19.866566      65.331756    
     98000   1.0331596      20.958466      65.230785    
     99000   0.9829513      20.340367      65.027617    
    100000   1.0054675      20.625089      64.873569    
Loop time of 422.462 on 2 procs for 100000 steps with 901 atoms

Performance: 204515.341 tau/day, 236.708 timesteps/s
103.0% CPU use with 1 MPI tasks x 2 OpenMP threads

MPI task timing breakdown:
Section |  min time  |  avg time  |  max time  |%varavg| %total
---------------------------------------------------------------
Pair    | 1.5862     | 1.5862     | 1.5862     |   0.0 |  0.38
Bond    | 2.718      | 2.718      | 2.718      |   0.0 |  0.64
Neigh   | 411.49     | 411.49     | 411.49     |   0.0 | 97.40
Comm    | 0.048247   | 0.048247   | 0.048247   |   0.0 |  0.01
Output  | 0.41532    | 0.41532    | 0.41532    |   0.0 |  0.10
Modify  | 5.7785     | 5.7785     | 5.7785     |   0.0 |  1.37
Other   |            | 0.423      |            |       |  0.10

Nlocal:            901 ave         901 max         901 min
Histogram: 1 0 0 0 0 0 0 0 0 0
Nghost:              0 ave           0 max           0 min
Histogram: 1 0 0 0 0 0 0 0 0 0
Neighs:           6809 ave        6809 max        6809 min
Histogram: 1 0 0 0 0 0 0 0 0 0

Total # of neighbors = 6809
Ave neighs/atom = 7.5571587
Ave special neighs/atom = 1.9977802
Neighbor list builds = 1152
Dangerous builds = 0

# Replace lj potential, now collapse
pair_style      lj/cut 3

# Cutoff simul when gyration under 7
# Variable created with equal requires v_ + 'name'
fix 3 all halt 1000 v_rog < 7

run 3000000
Generated 0 of 0 mixed pair_coeff terms from geometric mixing rule
Last active /omp style is angle_style cosine/omp
Per MPI rank memory allocation (min/avg/max) = 1862 | 1862 | 1862 Mbytes
   Step          Temp         Enthalpy         c_1      
    100000   1.0054675      19.831238      64.873569    
    101000   0.96203601     19.569689      64.714554    
    102000   0.99969732     19.889014      64.559239    
    103000   0.96498796     19.246973      64.523393    
    104000   1.0661894      19.23422       64.583398    
    105000   0.98648627     19.402491      64.445015    
    106000   0.99989229     19.22004       64.178279    
    107000   0.99330268     19.357967      63.862698    
    108000   1.0318257      19.269924      63.79845     
    109000   0.96935971     19.131779      63.622887    
    110000   0.99060677     18.940885      63.369405    
    111000   1.0212477      19.223125      63.197725    
    112000   0.97207749     19.122573      63.07561     
    113000   1.0265995      18.810718      62.893622    
    114000   1.0014594      18.799615      62.873446    
    115000   1.0318604      18.716156      62.888919    
    116000   0.99504372     18.353209      62.510298    
    117000   0.94863114     18.88754       62.220529    
    118000   1.0454989      19.116683      61.942174    
    119000   0.98218306     18.81151       61.834307    
    120000   0.97291164     19.040007      61.766125    
    121000   1.0077809      19.030863      61.811622    
    122000   0.99474939     19.397788      61.785152    
    123000   0.9647879      18.059338      61.699814    
    124000   0.93470514     19.32342       61.588291    
    125000   1.0140584      19.129507      61.464246    
    126000   1.018211       18.368739      61.385257    
    127000   0.99834798     18.66552       61.153973    
    128000   0.99789694     18.877386      61.202157    
    129000   0.94367572     18.291016      61.16895     
    130000   0.99894986     18.407642      61.301081    
    131000   0.96950845     18.706067      61.499181    
    132000   1.0231467      18.793759      61.358793    
    133000   1.0159438      17.99346       60.899462    
    134000   0.99957034     18.335341      60.75837     
    135000   1.0276342      18.951653      60.646547    
    136000   1.0103163      18.532726      60.609792    
    137000   0.99098456     18.168446      60.395676    
    138000   1.0051321      18.799712      60.22581     
    139000   0.95725538     18.775479      60.094604    
    140000   0.99455434     18.558393      59.90256     
    141000   0.99262122     19.099963      59.821432    
    142000   0.99847407     18.995495      59.863338    
    143000   1.0214182      18.942841      59.546716    
    144000   1.0120856      18.573798      59.466025    
    145000   0.96969123     17.776665      59.344943    
    146000   1.0070269      18.516418      59.539533    
    147000   0.97618167     18.656407      59.5223      
    148000   0.98725022     18.75112       59.612739    
    149000   1.0459975      18.480695      59.532231    
    150000   1.0257541      18.196236      59.783436    
    151000   0.98291301     18.420227      59.869566    
    152000   1.0460955      18.792268      59.768362    
    153000   0.95746002     18.055834      59.682903    
    154000   1.0118791      18.578483      59.745111    
    155000   0.99234178     18.56013       59.527998    
    156000   0.98056789     17.829839      59.376979    
    157000   0.97126223     18.186909      59.031577    
    158000   0.97345308     17.796136      58.958397    
    159000   0.95524095     18.45765       58.797716    
    160000   0.99157855     17.835509      58.513713    
    161000   1.0376432      17.742257      58.456243    
    162000   1.0368239      17.745186      58.482842    
    163000   1.0007073      18.468412      58.250344    
    164000   0.97295221     18.314849      58.041268    
    165000   1.0303207      18.337805      57.52015     
    166000   1.0070685      18.208043      57.515212    
    167000   0.95037272     18.25048       57.219748    
    168000   1.0434788      17.762873      56.988784    
    169000   1.0391595      18.025287      56.632198    
    170000   1.0256468      17.44146       56.581392    
    171000   1.0409409      18.075561      56.283526    
    172000   0.99197166     17.601291      56.380125    
    173000   1.0082215      17.83157       56.213657    
    174000   0.9912001      17.817169      55.892211    
    175000   1.0017963      17.395222      55.894667    
    176000   1.0342643      17.680016      55.85215     
    177000   0.974837       17.694007      55.585661    
    178000   1.0108339      17.676065      55.618794    
    179000   1.029919       17.439183      55.59221     
    180000   1.0254265      17.433656      55.44207     
    181000   0.97096755     17.365962      55.410889    
    182000   1.0405105      17.881738      55.217397    
    183000   1.0194944      17.799768      55.17896     
    184000   0.97404176     17.218135      55.230565    
    185000   0.97561956     17.712308      55.302567    
    186000   0.98954049     17.933841      55.082058    
    187000   1.0202364      17.400628      55.023988    
    188000   0.96535266     17.534937      54.934815    
    189000   0.98757397     16.930764      54.942068    
    190000   0.96038916     17.550558      54.97691     
    191000   0.93988558     17.666872      54.977755    
    192000   1.007862       17.570985      54.761079    
    193000   1.0069882      17.787067      54.809059    
    194000   1.0522706      17.967808      54.684818    
    195000   1.0166365      17.552777      54.704227    
    196000   1.0120275      17.78761       54.702949    
    197000   1.0096726      17.736015      54.37503     
    198000   1.0096917      17.723164      54.317654    
    199000   1.0076706      17.66915       54.357574    
    200000   0.99462516     17.849107      54.243806    
    201000   1.0039615      18.1447        54.172246    
    202000   1.0518161      17.955881      54.366607    
    203000   0.9903418      17.73018       54.322683    
    204000   0.99349508     17.879344      54.335937    
    205000   0.98751025     17.798956      54.332955    
    206000   1.0060026      17.266403      54.36609     
    207000   1.0250388      17.801031      54.287487    
    208000   1.018795       17.491308      54.102211    
    209000   0.99752229     17.757878      54.017789    
    210000   1.0649826      18.367431      53.920792    
    211000   0.96178833     17.686567      54.02693     
    212000   1.0302741      17.543085      53.948249    
    213000   1.0446078      17.44209       53.755474    
    214000   1.0602741      17.748456      53.945984    
    215000   0.97267335     18.047528      53.823484    
    216000   0.97250624     17.378644      53.837746    
    217000   0.98734773     17.287923      53.712863    
    218000   0.95953262     17.405556      53.470917    
    219000   0.98134613     17.602034      53.454779    
    220000   0.98986781     17.190908      53.251044    
    221000   1.0583748      18.458647      53.106598    
    222000   1.0497666      17.739599      52.936769    
    223000   1.0332891      17.159063      52.861835    
    224000   0.97972842     17.209382      52.712501    
    225000   0.98408035     17.64365       52.33242     
    226000   0.972961       17.494287      52.001656    
    227000   1.0326462      17.800012      51.804171    
    228000   0.96310004     17.219052      51.606145    
    229000   0.96593321     17.958963      51.487993    
    230000   0.98494535     17.616561      51.334617    
    231000   0.98776326     17.040215      50.687685    
    232000   0.967416       17.104142      50.870222    
    233000   1.0160743      16.999957      50.737021    
    234000   1.0010772      17.768284      50.626073    
    235000   1.0012492      17.151172      50.513298    
    236000   0.97776108     17.10146       50.304087    
    237000   1.0199112      17.566549      49.955867    
    238000   1.0810726      18.146551      49.871833    
    239000   1.029017       17.957447      49.674883    
    240000   1.0398173      17.803432      49.562487    
    241000   1.0484604      18.365999      49.55097     
    242000   1.0093482      17.696984      49.341194    
    243000   1.0235219      18.162389      49.241547    
    244000   1.0384032      17.882229      48.876082    
    245000   0.98858443     17.80617       48.639359    
    246000   1.0611097      18.182962      48.326356    
    247000   1.0276724      17.610957      48.257494    
    248000   1.0279612      18.320847      48.0792      
    249000   1.0144208      18.082607      47.983126    
    250000   0.98586943     17.754956      48.065457    
    251000   0.99392222     17.4789        48.089815    
    252000   1.017776       17.857755      47.901128    
    253000   1.0069046      17.945798      47.825153    
    254000   1.0075061      17.568743      47.567915    
    255000   1.0433369      17.69987       47.36272     
    256000   1.0046668      17.928113      47.298962    
    257000   0.97704579     17.643733      47.458077    
    258000   0.98787129     17.802964      47.123054    
    259000   1.0208596      17.53064       46.830017    
    260000   1.0173024      17.074333      46.843002    
    261000   0.97205347     17.660407      46.95581     
    262000   0.94889612     17.562224      46.942784    
    263000   1.0632867      17.812853      46.819091    
    264000   0.99204031     17.760387      46.68543     
    265000   1.0159462      17.475072      46.613259    
    266000   0.99442488     17.549786      46.507783    
    267000   0.99907004     17.574671      46.412749    
    268000   1.0079142      17.649671      46.46352     
    269000   0.98330141     18.564977      46.40349     
    270000   0.96144926     18.30334       46.378953    
    271000   1.0094029      17.556698      46.227916    
    272000   1.0203773      17.58677       46.014534    
    273000   0.97079518     17.730013      46.045164    
    274000   0.9562899      17.602413      45.986397    
    275000   0.99581693     17.663648      46.105215    
    276000   0.99582858     17.732556      46.244207    
    277000   0.99463991     17.805725      45.985132    
    278000   0.96131939     17.822364      45.953859    
    279000   1.0288312      17.680363      46.050668    
    280000   0.95923237     17.629069      45.901038    
    281000   1.0039701      17.206193      46.023365    
    282000   1.009927       17.38775       45.699669    
    283000   1.0331101      18.136997      45.66874     
    284000   0.95902619     18.118754      45.78789     
    285000   1.0679932      17.901432      45.584129    
    286000   1.032697       18.179264      45.334086    
    287000   1.0026293      17.822176      45.019419    
    288000   0.96257601     17.87436       45.182549    
    289000   1.0351127      17.642795      45.308499    
    290000   0.95550357     17.433878      45.203876    
    291000   1.0104041      17.690594      45.153448    
    292000   1.0462522      17.42951       45.072206    
    293000   1.0141961      17.612861      44.940814    
    294000   1.0332949      17.531545      44.730419    
    295000   1.033305       17.369347      44.37846     
    296000   1.0304337      17.652381      44.314599    
    297000   0.96378702     17.794297      44.11633     
    298000   1.0334925      17.360488      44.280029    
    299000   1.0088253      17.660032      44.25727     
    300000   0.97335231     17.020639      43.931457    
    301000   1.0237118      17.784496      43.865596    
    302000   1.036576       17.345139      43.928856    
    303000   0.98934663     17.934536      43.805901    
    304000   1.0215524      17.895231      43.600855    
    305000   0.99293835     18.242653      43.334122    
    306000   0.9371541      17.893236      42.979552    
    307000   0.96379012     17.059894      42.975168    
    308000   1.0105884      17.946865      42.748796    
    309000   1.0255028      17.596004      42.713146    
    310000   1.0375407      17.825905      42.602419    
    311000   1.0172546      17.571098      42.579453    
    312000   1.0023562      18.30304       42.500193    
    313000   0.98113344     17.194099      42.608079    
    314000   0.98261931     18.074934      42.325027    
    315000   0.97647606     17.76831       42.218083    
    316000   0.99722699     17.588135      41.919169    
    317000   0.9884391      17.798249      42.079309    
    318000   0.95187949     17.444877      41.785441    
    319000   1.0054961      18.199766      41.505572    
    320000   0.99356272     17.772505      41.296643    
    321000   0.97837596     17.523517      41.27681     
    322000   0.95033214     17.494756      41.358106    
    323000   0.98977568     18.12845       41.251663    
    324000   1.0130239      17.301467      41.228035    
    325000   0.98084518     17.596088      41.112791    
    326000   0.98928452     18.553894      41.021563    
    327000   1.0487706      17.393186      41.035806    
    328000   1.0035997      17.537229      40.884316    
    329000   1.0133799      17.186142      41.085549    
    330000   0.99649908     17.979806      40.893984    
    331000   1.030507       17.540992      40.742478    
    332000   0.99201193     18.077045      40.653468    
    333000   0.97854258     17.378663      40.469129    
    334000   1.0417342      17.301372      40.310611    
    335000   0.9940207      17.49283       40.341113    
    336000   0.96489214     17.239595      40.196928    
    337000   0.98426312     17.312106      40.136597    
    338000   0.99561081     17.92947       40.152203    
    339000   0.98879428     17.555605      39.831108    
    340000   0.98601152     17.459952      39.631349    
    341000   0.96442615     17.31179       39.584763    
    342000   1.0043168      17.943284      39.672287    
    343000   1.0361223      17.227531      39.422801    
    344000   1.0147978      17.521386      39.643351    
    345000   0.9704178      17.689947      39.898201    
    346000   1.0346675      17.569514      39.991407    
    347000   1.0182314      17.003205      39.977544    
    348000   0.99732518     17.207731      39.959811    
    349000   1.0303414      18.097228      39.926002    
    350000   1.032395       18.249386      39.88966     
    351000   0.99414109     17.699651      39.764735    
    352000   0.97350352     17.459999      39.609167    
    353000   0.9841408      17.222606      39.523376    
    354000   1.0318858      17.958341      39.563095    
    355000   1.0111132      18.067507      39.526429    
    356000   1.0094965      17.256981      39.074198    
    357000   1.0003165      16.980334      39.134702    
    358000   1.0541271      18.233337      39.070443    
    359000   1.0212743      17.623524      39.054526    
    360000   1.0156084      17.782386      38.761446    
    361000   1.0214118      17.823332      38.491208    
    362000   0.99180241     17.083078      38.593612    
    363000   0.99696896     17.927672      38.423941    
    364000   1.0285447      18.197487      38.2555      
    365000   0.97584282     17.225871      38.175249    
    366000   1.0188867      17.133699      38.34398     
    367000   1.0451074      17.828386      38.256187    
    368000   0.9648433      17.526024      38.1141      
    369000   1.0154156      17.740583      38.144181    
    370000   1.0057718      17.896392      37.919908    
    371000   1.0077266      18.36456       37.968596    
    372000   0.99381121     17.153634      38.016148    
    373000   0.96877269     17.290485      37.947558    
    374000   1.0263633      17.60801       37.898172    
    375000   1.0363899      18.13434       37.801413    
    376000   1.0254919      17.873292      37.753792    
    377000   0.99142867     17.738354      37.485132    
    378000   1.0117933      16.981252      37.247195    
    379000   0.95675212     17.166034      37.148082    
    380000   0.96645464     17.813379      37.001097    
    381000   0.98506555     17.670962      36.884438    
    382000   1.0202484      18.016559      37.257675    
    383000   0.9663192      17.564659      37.015117    
    384000   1.0022395      17.722532      36.999592    
    385000   1.0267947      17.910256      36.984644    
    386000   1.0427817      17.450716      36.946262    
    387000   0.98170584     17.547417      36.85793     
    388000   0.96476543     17.684337      36.571966    
    389000   0.97978161     17.384721      36.434422    
    390000   0.96481648     17.889222      36.342356    
    391000   0.97887493     17.185598      36.197628    
    392000   1.0265872      17.669485      36.131536    
    393000   0.95748017     17.766177      36.188006    
    394000   1.0050865      17.694388      35.878625    
    395000   0.99523241     17.621083      35.675229    
    396000   0.95851229     17.098659      35.60202     
    397000   0.95476556     17.972818      35.53181     
    398000   0.99274295     17.278636      35.559602    
    399000   1.0195778      17.891359      35.619058    
    400000   1.0164311      17.483211      35.329328    
    401000   0.96899665     17.043269      35.283488    
    402000   0.9649388      17.205336      35.222462    
    403000   0.99826471     17.762237      35.299498    
    404000   1.0159371      17.103162      35.255402    
    405000   1.038833       18.064801      35.252162    
    406000   0.99062864     17.217808      35.418499    
    407000   0.99061212     17.779098      35.381075    
    408000   1.0161641      17.631519      34.85618     
    409000   0.97784623     17.820423      34.502397    
    410000   0.94909062     17.188485      34.329549    
    411000   1.0058818      17.821305      34.417807    
    412000   1.0329474      17.358108      34.248877    
    413000   1.0368632      17.445427      34.36898     
    414000   1.0156921      17.862845      34.047957    
    415000   1.028716       17.396299      34.020953    
    416000   0.9954626      17.871014      34.04277     
    417000   1.0580593      17.164853      34.18539     
    418000   1.0205173      17.876934      34.036477    
    419000   1.0061673      17.74523       33.782344    
    420000   0.99908454     17.447508      33.799767    
    421000   1.051165       18.117442      33.647133    
    422000   0.9865234      17.800422      33.626186    
    423000   1.0052684      17.943461      33.330312    
    424000   0.9620649      17.506406      33.022332    
    425000   0.92829788     17.210095      32.989172    
    426000   1.0401788      17.831272      32.877798    
    427000   1.0292835      17.745259      32.565639    
    428000   1.012613       17.582797      32.429594    
    429000   1.0389152      17.842038      32.258625    
    430000   0.98645847     17.516122      32.150682    
    431000   1.0134274      17.608154      32.016553    
    432000   1.0074058      17.440618      31.992132    
    433000   1.0354027      17.922949      31.833314    
    434000   1.0024864      17.711139      31.86639     
    435000   1.0553502      17.82423       32.012159    
    436000   0.98057147     17.081008      31.971866    
    437000   1.0195222      17.379203      31.979413    
    438000   1.0016138      17.436323      31.777462    
    439000   1.0439741      17.29013       31.637768    
    440000   0.99538116     17.664733      31.372866    
    441000   0.96239516     17.48611       31.307897    
    442000   0.99753165     17.590812      31.225615    
    443000   1.0428376      17.482652      31.137366    
    444000   1.0343397      17.835826      30.978032    
    445000   1.0518084      18.211528      30.708911    
    446000   0.98055078     17.483465      30.781554    
    447000   1.0144341      18.162703      30.729582    
    448000   1.0192021      17.025779      30.790478    
    449000   0.98730857     17.453705      30.710134    
    450000   0.99123238     17.539103      30.601851    
    451000   1.016298       17.347264      30.340179    
    452000   0.99141445     17.182122      30.041764    
    453000   0.99820967     17.855884      29.825842    
    454000   0.97115513     17.4914        29.714316    
    455000   0.99158989     16.993336      29.643788    
    456000   1.0577291      17.435627      29.342255    
    457000   1.0228245      17.091343      29.315683    
    458000   0.9668886      17.227712      29.13906     
    459000   0.95060745     17.087772      29.065087    
    460000   1.0510839      17.533265      28.835597    
    461000   1.0195145      17.990385      28.527254    
    462000   0.99783268     16.977765      28.669478    
    463000   1.034616       17.415188      28.683626    
    464000   0.96465272     17.380327      28.497166    
    465000   0.95849117     17.896231      28.431803    
    466000   1.0212205      16.996155      28.343774    
    467000   1.0056046      17.439928      28.077903    
    468000   0.96618489     16.974266      27.909693    
    469000   0.97045364     17.672474      27.963961    
    470000   1.0600416      18.645708      27.789194    
    471000   0.99314467     17.705937      27.834197    
    472000   1.011277       17.987377      27.51036     
    473000   0.9913312      16.998408      27.342556    
    474000   1.0269094      17.825907      27.091929    
    475000   0.99583131     17.498256      27.045259    
    476000   0.99341734     17.865971      26.990749    
    477000   1.0535184      17.359324      27.032792    
    478000   1.0453014      17.780136      26.916986    
    479000   0.97154222     17.561244      26.783673    
    480000   0.97231113     16.752907      26.702609    
    481000   1.0001664      17.079585      26.562375    
    482000   1.0349358      17.552967      26.445411    
    483000   1.0026624      17.446609      26.548475    
    484000   0.9680289      17.217085      26.715671    
    485000   0.97249078     17.570514      26.781562    
    486000   0.99900257     17.677326      26.938994    
    487000   0.96647232     17.525636      26.882762    
    488000   0.99130995     17.633007      26.863215    
    489000   0.98345185     17.993297      26.732616    
    490000   1.0047637      17.603429      26.786406    
    491000   0.93407005     17.572606      26.855353    
    492000   0.99368645     16.985172      26.800794    
    493000   0.9935447      17.507802      26.814927    
    494000   0.97865324     17.424386      26.707542    
    495000   0.96234207     17.537043      26.564517    
    496000   1.0067982      17.789361      26.363055    
    497000   1.0113735      17.969941      26.30528     
    498000   0.96487809     17.869776      26.262986    
    499000   0.97503874     17.0312        26.281357    
    500000   0.98747315     17.540725      26.137983    
    501000   0.97351279     17.362984      26.219469    
    502000   1.0344845      17.112672      26.31976     
    503000   1.030222       17.739705      26.123874    
    504000   1.0113614      17.777076      25.873193    
    505000   1.0304336      17.463834      25.803879    
    506000   0.99002982     17.590806      25.799562    
    507000   1.0017871      17.781544      25.554994    
    508000   0.97668817     17.456594      25.46072     
    509000   1.0114903      17.119523      25.837129    
    510000   0.9742115      18.122019      25.826477    
    511000   0.97807462     17.058341      25.568857    
    512000   1.0603409      17.132459      25.457006    
    513000   0.98004886     17.459152      25.422575    
    514000   1.0476304      17.457504      25.213751    
    515000   0.95173786     17.746028      25.022512    
    516000   0.97379654     17.50797       24.955007    
    517000   0.94162355     17.637095      25.116448    
    518000   1.0023757      16.932587      25.277828    
    519000   1.0331876      17.332439      25.171239    
    520000   0.96942998     17.312907      24.745418    
    521000   1.0080596      17.101455      24.898211    
    522000   0.99581274     17.508294      25.151118    
    523000   0.9888766      17.097247      25.106696    
    524000   0.99155518     17.166762      24.857405    
    525000   0.99026375     17.620249      24.81451     
    526000   0.97266627     17.095587      24.884114    
    527000   1.001706       18.230048      24.922669    
    528000   1.0186329      17.67345       24.72539     
    529000   1.0212759      18.160108      24.368275    
    530000   1.0022562      17.29051       24.365854    
    531000   0.99051774     17.855447      24.147161    
    532000   1.0138713      17.693225      23.904951    
    533000   0.9814653      17.856965      23.763953    
    534000   1.0595602      17.64336       23.722019    
    535000   0.97297482     17.702253      23.588113    
    536000   0.93957939     17.64054       23.414502    
    537000   1.0481424      17.165686      23.105028    
    538000   0.98181246     17.61598       23.255164    
    539000   1.0315597      17.573702      23.136638    
    540000   1.01774        17.866169      23.131156    
    541000   1.0091236      17.572466      23.326517    
    542000   1.0228508      17.56864       23.406356    
    543000   0.96885011     17.443341      23.364173    
    544000   1.0532024      17.777884      23.216325    
    545000   1.0165665      17.391408      23.024925    
    546000   0.98422741     17.412582      23.00571     
    547000   0.99246444     17.570726      23.168003    
    548000   1.0359466      17.763618      23.132799    
    549000   0.99908168     17.6458        22.825878    
    550000   0.97914152     17.777743      22.74435     
    551000   1.034919       17.829269      22.628926    
    552000   0.96517993     16.979466      22.392453    
    553000   1.0081194      17.56          22.139597    
    554000   0.96518963     17.377913      22.065059    
    555000   0.97827524     17.538525      21.906537    
    556000   0.9775619      17.203973      21.567956    
    557000   1.0101625      17.825249      21.554173    
    558000   0.96140755     17.583608      21.382978    
    559000   1.0412661      17.254639      21.201936    
    560000   0.99761996     17.643988      20.906618    
    561000   1.0233549      17.35832       20.886507    
    562000   1.043252       17.557566      20.768613    
    563000   0.99406048     17.72493       20.629784    
    564000   1.0329715      17.67669       20.587195    
    565000   1.0112749      17.518868      20.540229    
    566000   0.98639632     17.886487      20.310863    
    567000   0.99962782     16.91648       20.292673    
    568000   1.0260916      16.767167      20.483575    
    569000   0.97527371     17.298777      20.424402    
    570000   0.98038123     17.452687      20.195255    
    571000   1.0004034      17.877834      20.132936    
    572000   1.0264583      17.532285      20.30104     
    573000   1.0288034      17.827066      20.2614      
    574000   1.0411768      17.725354      20.0726      
    575000   0.98182008     17.737188      19.678309    
    576000   1.0406661      17.229312      19.490864    
    577000   0.99039064     17.16226       19.559601    
    578000   0.99425267     17.498495      19.393497    
    579000   0.99608148     17.420949      19.269565    
    580000   0.97655641     18.089767      19.417526    
    581000   1.0133401      17.680392      19.164056    
    582000   0.96700244     17.436348      19.15343     
    583000   0.99061837     17.497799      19.151135    
    584000   0.98626547     17.426664      19.033856    
    585000   1.0231217      17.342953      18.932963    
    586000   0.99044208     17.822413      18.922342    
    587000   0.97969046     17.518761      18.661771    
    588000   1.0419209      17.949387      18.683968    
    589000   1.0036304      16.970285      18.582768    
    590000   1.0036675      17.210317      18.416379    
    591000   0.97462596     17.142639      18.513384    
    592000   0.99608603     17.180209      18.443051    
    593000   1.0486629      17.865145      18.318891    
    594000   1.0124262      17.694238      18.201786    
    595000   1.0270377      18.116902      18.104676    
    596000   1.022735       16.999802      18.301424    
    597000   0.94083043     17.742653      18.423046    
    598000   1.0201728      17.238552      18.394185    
    599000   1.0139217      17.980719      18.371242    
    600000   1.0231462      17.635439      18.022283    
    601000   0.98910499     17.798139      17.983032    
    602000   0.98667473     16.686386      17.766145    
    603000   1.0062718      18.205244      17.521692    
    604000   0.93430067     17.415244      17.438057    
    605000   1.0128581      17.482863      17.08693     
    606000   0.97071023     17.574273      16.636293    
    607000   0.96450626     17.769619      16.80073     
    608000   0.96430982     17.778278      16.629558    
    609000   0.99179422     18.090648      16.454906    
    610000   0.98326849     16.826646      16.418069    
    611000   1.0461978      17.601128      16.31716     
    612000   1.0218437      17.412446      16.234025    
    613000   0.98467422     17.228         16.10641     
    614000   1.0234965      16.840941      16.175284    
    615000   1.0778963      17.618449      16.384952    
    616000   0.98043092     17.096506      16.253647    
    617000   0.99431561     17.018184      16.137237    
    618000   1.0092594      17.901169      16.104457    
    619000   0.99680293     17.27422       16.033202    
    620000   0.96282991     17.344573      16.114179    
    621000   1.0054762      17.107181      16.091063    
    622000   1.0001583      17.823609      16.0197      
    623000   1.023967       17.31977       15.999046    
    624000   0.98866818     17.397924      15.826779    
    625000   1.0364167      17.009661      15.673239    
    626000   1.0048538      17.229916      15.72123     
    627000   0.99861309     17.263853      15.624878    
    628000   1.0147534      17.616386      15.635391    
    629000   0.99701483     17.511351      15.388158    
    630000   1.033811       18.239623      15.128216    
    631000   0.98812576     16.963582      14.980072    
    632000   0.98065659     16.651517      14.732988    
    633000   1.0305188      17.857212      14.697734    
    634000   0.9789972      17.604778      14.741764    
    635000   0.97422408     16.821937      14.825576    
    636000   0.98106867     17.381264      15.018124    
    637000   0.97070353     17.502861      14.925996    
    638000   0.98061937     17.209983      14.901923    
    639000   1.0551717      18.037594      14.545283    
    640000   1.069263       17.337227      14.498233    
    641000   1.0241701      17.717863      14.42958     
    642000   1.0463367      17.318607      14.406197    
    643000   0.98130025     17.055755      14.477485    
    644000   0.98151972     17.950244      14.543003    
    645000   0.9960904      17.584494      14.401235    
    646000   0.99795749     17.2317        14.346226    
    647000   1.0372233      17.483157      14.359156    
    648000   1.0020372      18.093471      14.107323    
    649000   1.0178071      16.923059      14.003413    
    650000   0.99162664     17.914121      14.192175    
    651000   0.98428773     17.749072      14.247606    
    652000   1.0299011      17.054532      14.066163    
    653000   0.98847217     17.794619      13.9424      
    654000   0.9961225      17.408436      13.83946     
    655000   1.0536096      16.984891      13.670621    
    656000   0.97766668     17.52826       13.698766    
    657000   0.9799814      17.314333      13.707696    
    658000   0.99907311     17.998708      13.543902    
    659000   0.98305182     17.26812       13.42498     
    660000   1.012422       17.56809       13.26705     
    661000   1.0038612      17.088649      13.016298    
    662000   0.95453319     17.983685      12.940921    
    663000   0.99063845     17.903872      12.814434    
    664000   1.0438153      17.485814      12.549197    
    665000   1.0218378      17.339949      12.567177    
    666000   0.99838759     17.667106      12.689833    
    667000   1.0170319      17.241906      12.508666    
    668000   0.99811325     17.024454      12.230011    
    669000   1.0565264      17.553628      12.057859    
    670000   0.9798473      17.547586      12.196871    
    671000   0.95539052     17.105014      12.004111    
    672000   0.99586486     17.456796      11.694723    
    673000   0.96654974     17.164463      11.699747    
    674000   1.0108929      17.665028      11.740028    
    675000   0.98068559     16.963668      11.633718    
    676000   0.99832824     16.923747      11.700046    
    677000   0.97969908     17.571365      11.879605    
    678000   1.0147346      17.035284      11.665981    
    679000   1.0068545      17.282881      11.570167    
    680000   0.99181681     17.239679      11.36853     
    681000   1.007734       17.409814      11.220885    
    682000   0.97850771     16.899059      11.208609    
    683000   0.944373       17.466953      11.123322    
    684000   0.99422822     17.285408      10.757843    
    685000   1.0578451      17.19172       10.817878    
    686000   1.0166617      17.616041      10.881749    
    687000   0.97882732     17.304234      10.831058    
    688000   0.97422221     17.335777      10.775578    
    689000   1.0092556      17.221307      10.77634     
    690000   0.97667818     16.375369      10.737036    
    691000   0.97715443     17.269437      10.619743    
    692000   0.98302797     16.688816      10.440496    
    693000   0.94984344     17.249205      10.418401    
    694000   0.97104503     17.579969      10.125489    
    695000   1.0192418      17.366055      10.014017    
    696000   0.97921899     17.230191      9.7914846    
    697000   0.99561482     16.96914       9.6422765    
    698000   0.97410002     17.04724       9.7789278    
    699000   1.0410785      17.619931      9.7377808    
    700000   1.0096933      17.109453      9.8354263    
    701000   1.0252136      17.020812      9.8525714    
    702000   0.97385446     17.197875      9.828201     
    703000   0.9971149      17.081249      9.8885808    
    704000   0.97011971     17.384008      9.9813355    
    705000   0.99056536     17.315727      10.061674    
    706000   0.96883967     17.125556      10.027976    
    707000   0.96420689     17.521013      9.8891414    
    708000   0.97149616     17.227727      9.8798223    
    709000   0.98112531     16.602544      9.9715864    
    710000   0.96144097     17.178096      9.890112     
    711000   0.96080732     16.719789      9.7750314    
    712000   0.97177511     16.675762      9.8563238    
    713000   1.0069001      18.038626      10.066864    
    714000   0.99987703     17.469285      10.070278    
    715000   0.95134097     17.133243      9.9859822    
    716000   1.0506274      17.229182      10.10138     
    717000   1.0379023      17.163848      10.225628    
    718000   1.0243585      16.692365      10.28118     
    719000   1.0445674      16.893909      10.349216    
    720000   1.0184983      17.262991      10.214241    
    721000   0.99747781     17.024211      10.145986    
    722000   1.0204029      17.409226      9.9771699    
    723000   1.0067364      17.331845      9.7880658    
    724000   0.94816001     17.018521      9.875703     
    725000   0.98852294     17.940988      9.9082071    
    726000   0.9799173      17.231212      9.9948837    
    727000   1.0360863      17.330319      10.055829    
    728000   1.0448734      17.392982      9.9366822    
    729000   1.0184122      16.959347      9.8821979    
    730000   0.96253098     17.441018      9.8205812    
    731000   1.0265807      16.884652      9.8096181    
    732000   0.98633418     17.179602      9.7011941    
    733000   0.98205505     17.282266      9.6257501    
    734000   0.99909714     17.448279      9.4342468    
    735000   0.99000781     17.489375      9.4323205    
    736000   0.9521746      17.177747      9.5005116    
    737000   0.96839417     17.08297       9.1801043    
    738000   0.9906869      17.246982      8.9315595    
    739000   0.99124832     16.855189      9.0613354    
    740000   1.0224707      17.359174      9.1200172    
    741000   0.96432622     17.695815      9.00477      
    742000   0.98936804     17.024802      8.7605728    
    743000   0.99020188     16.015944      8.5565255    
    744000   0.97980465     16.426026      8.4445452    
    745000   0.99287776     16.866438      8.4760178    
    746000   1.0276357      16.934623      8.343707     
    747000   0.92792883     16.59681       8.0653137    
    748000   1.0236328      16.410064      8.1361634    
    749000   0.99588655     17.483709      8.2450753    
    750000   0.96899297     16.888422      8.2347188    
    751000   0.99005494     16.824883      8.0286895    
    752000   1.0213709      17.136313      7.8858267    
    753000   1.0311866      17.28206       8.0649815    
    754000   1.0306691      16.938268      7.9780099    
    755000   1.06314        16.867604      7.7402753    
    756000   0.97612483     17.476268      7.5582929    
    757000   0.94977337     17.01368       7.3353738    
    758000   0.97315445     17.163755      7.1200664    
Fix halt condition for fix-id 3 met on step 759000 with value 6.931988743578782 (src/fix_halt.cpp:237)
    759000   1.0187872      17.341984      6.9319887    
Loop time of 1081.69 on 2 procs for 659000 steps with 901 atoms

Performance: 526374.592 tau/day, 609.230 timesteps/s
132.3% CPU use with 1 MPI tasks x 2 OpenMP threads

MPI task timing breakdown:
Section |  min time  |  avg time  |  max time  |%varavg| %total
---------------------------------------------------------------
Pair    | 272.51     | 272.51     | 272.51     |   0.0 | 25.19
Bond    | 19.794     | 19.794     | 19.794     |   0.0 |  1.83
Neigh   | 742.06     | 742.06     | 742.06     |   0.0 | 68.60
Comm    | 0.37773    | 0.37773    | 0.37773    |   0.0 |  0.03
Output  | 2.7767     | 2.7767     | 2.7767     |   0.0 |  0.26
Modify  | 40.888     | 40.888     | 40.888     |   0.0 |  3.78
Other   |            | 3.295      |            |       |  0.30

Nlocal:            901 ave         901 max         901 min
Histogram: 1 0 0 0 0 0 0 0 0 0
Nghost:              0 ave           0 max           0 min
Histogram: 1 0 0 0 0 0 0 0 0 0
Neighs:         175099 ave      175099 max      175099 min
Histogram: 1 0 0 0 0 0 0 0 0 0

Total # of neighbors = 175099
Ave neighs/atom = 194.33851
Ave special neighs/atom = 1.9977802
Neighbor list builds = 5527
Dangerous builds = 0

# This simulation is done
# Move onto the next one
clear
  using 2 OpenMP thread(s) per MPI task
package omp 0
using multi-threaded neighbor list subroutines
next f
jump SELF

###
# Reference paper:
# K. Kremer and G. S. Grest
# Dynamics of entangled linear polymer melts: A molecular-dynamics simulation
# J Chem Phys 92, 5057 (1990)

##################################
# MIHIR: for branched polymers
# LJ minimum first to expand and explore, then collapse
###

###
# Looping through the various N3B4 polymers to simulate,
# define variables to switch through
variable f index bb40nuc3bl10bn4d30tot100V2 bb80nuc3bl20bn4d30tot200V2 bb120nuc3bl30bn4d30tot300V2 bb160nuc3bl40bn4d30tot400V2 bb200nuc3bl50bn4d30tot500V2 bb240nuc3bl60bn4d30tot600V2 bb280nuc3bl70bn4d30tot700V2 bb320nuc3bl80bn4d30tot800V2 bb360nuc3bl90bn4d30tot900V2 bb400nuc3bl100bn4d30tot1000V2 bb440nuc3bl110bn4d30tot1100V2 bb480nuc3bl120bn4d30tot1200V2
# variable f index bb40nuc3bl10bn4d30tot100V3 bb80nuc3bl20bn4d30tot200V3 bb120nuc3bl30bn4d30tot300V3 bb160nuc3bl40bn4d30tot400V3 bb200nuc3bl50bn4d30tot500V3 bb240nuc3bl60bn4d30tot600V3 bb280nuc3bl70bn4d30tot700V3 bb320nuc3bl80bn4d30tot800V3 bb360nuc3bl90bn4d30tot900V3 bb400nuc3bl100bn4d30tot1000V3 bb440nuc3bl110bn4d30tot1100V3 bb480nuc3bl120bn4d30tot1200V3
# variable f index bb40nuc3bl10bn4d30tot100 bb80nuc3bl20bn4d30tot200 bb120nuc3bl30bn4d30tot300 bb160nuc3bl40bn4d30tot400 bb200nuc3bl50bn4d30tot500 bb240nuc3bl60bn4d30tot600 bb280nuc3bl70bn4d30tot700 bb320nuc3bl80bn4d30tot800 bb360nuc3bl90bn4d30tot900 bb400nuc3bl100bn4d30tot1000 bb440nuc3bl110bn4d30tot1100 bb480nuc3bl120bn4d30tot1200
###


###
# Box and units  (use LJ units and periodic boundaries)
###

units lj
log N3B4/trial2/logs3/$f.log
log N3B4/trial2/logs3/bb400nuc3bl100bn4d30tot1000V2.log
