#atom_style bond #no stiffness
atom_style angle #with stiffness

boundary        p p p
###
# Pair interactions require lists of neighbours to be calculated
###

#neighbor 0.3 bin
neighbor 4 bin

neigh_modify every 1 delay 1 check yes
atom_modify sort 0 0
### Generate RESTART file, SPECIAL format, not a .txt file ###
### Useful if simulation crashes ###

restart 1000000 N3B4/trial2/restarts3/$f.restart
restart 1000000 N3B4/trial2/restarts3/bb440nuc3bl110bn4d30tot1100V2.restart
#############################



### READ "start" data file ###

read_data N3B4/trial2/dats2/$f.dat
read_data N3B4/trial2/dats2/bb440nuc3bl110bn4d30tot1100V2.dat
Reading data file ...
  orthogonal box = (-1000 -1000 -1000) to (1000 1000 1000)
  1 by 1 by 1 MPI processor grid
  reading atoms ...
  1101 atoms
  scanning bonds ...
  3 = max bonds/atom
  scanning angles ...
  6 = max angles/atom
  reading bonds ...
  1100 bonds
  reading angles ...
  1108 angles
Finding 1-2 1-3 1-4 neighbors ...
  special bond factors lj:    0        0        0       
  special bond factors coul:  0        0        0       
     4 = max # of 1-2 neighbors
     4 = max # of 1-3 neighbors
     8 = max # of 1-4 neighbors
    12 = max # of special neighbors
  special bonds CPU = 0.004 seconds
  read_data CPU = 0.281 seconds

######################

### READ "REstart" data file ###

######################



###
# Define groups (atom type 1 is group 'all')
###
group all type 1
1101 atoms in group all


###
# Dump configs - "simple dumpings"
###

###
# Dump configs + box coords
###

dump   1   all   custom   1000  N3B4/trial2/trjs3/$f.lammpstrj  id  x y z  ix iy iz
dump   1   all   custom   1000  N3B4/trial2/trjs3/bb440nuc3bl110bn4d30tot1100V2.lammpstrj  id  x y z  ix iy iz
dump_modify   1   format line "%d %.5f %.5f %.5f %d %d %d"

########################################################################


###################################################################
# Stiffness term
#
# E = K * (1+cos(theta)), K>0
#
angle_style   cosine
#change this coefficient to change stiffness (e.g. 1,5,10)
angle_coeff   1 1.0
###################################################################

###################################################################
# Pair interaction between non-bonded atoms
#
#  Lennard-Jones 12-6 potential with cutoff:
#  potential E=4epsilon[ (sigma/r)^12 - (sigma/r)^6]  for r<r_cut
#
#  1.12246 = 2^(1/6) is the minimum of the potential


pair_style      lj/cut 1.12246152962189
#pair_style      lj/cut 3

#
#  pair_modify shift yes adds a constant to the potential such

#  that E(r_cut)=0. Forces remains unchanged.
#

pair_modify     shift yes

#
#  pair_coeff for lj/cut, specify 4:
#    * atom type interacting with
#    * atom type
#    * epsilon (energy units)
#    * sigma (distance units)
#

pair_coeff      1 1 1.0 1.0
###################################################################

###################################################################
# Pair interaction between non-bonded atoms
#
#  soft potential, for PUSHING apart overlapping atoms
#  potential E=A*(1 + cos(pi*r/r_c))
#
#  1.12246 = 2^(1/6) is the cut-off r_c

#pair_style     soft 1.12246152962189

#
#  pair_coeff for soft, specify 3:
#    * atom type interacting with
#    * atom type
#    * A
#
#

#pair_coeff      1 1 100.0
###################################################################

###################################################################
# Pair interaction between bonded atoms
#
# Fene potential + Lennard Jones 12-6:

#
#  E= - 0.5 K R0^2 ln[ 1- (r/R0)^2]
#     + 4epsilon[ (sigma/r)^12 - (sigma/r)^6] + epsilon
#

bond_style   fene


#
# For style fene, specify:
#   * bond type
#   * K (energy/distance^2)
#   * R0 (distance)
#   * epsilon (energy)  (LJ component)
#   * sigma (distance)  (LJ component)
#


special_bonds fene #<=== I M P O R T A N T (new command)
Finding 1-2 1-3 1-4 neighbors ...
  special bond factors lj:    0        1        1       
  special bond factors coul:  0        1        1       
     4 = max # of 1-2 neighbors
    12 = max # of special neighbors
  special bonds CPU = 0.001 seconds

bond_coeff   1   30   2   1.0   1.0


###################################################

###################################################################
# Pair interaction between bonded atoms
#
# Harmonic potential:
#
#  E= K * (R-R0)^2
#

#bond_style   harmonic

#
# For style harmonic, specify:
#   * bond type
#   * K (energy/distance^2)
#   * R0 (distance)
#

#bond_coeff   1   60.0   1.0
#bond_coeff   2   harmonic 0.1   1.0

###################################################
compute 1 all gyration
variable rog equal c_1
#compute 2 all coord/atom cutoff 1.1

#dump 2 all custom 10000 contact_number.dump id c_2


###
# Set up fixes
###
thermo_style   custom   step  temp enthalpy c_1
fix 1 all nve   ###NVE ensemble

fix 2 all   langevin   1.0 1.0 1.0  778655   ###Langevin integrator Tstart Tstop 1/friction rndseed


##### Sample thermodynamic info  (temperature, energy, pressure, etc.) #####
thermo 1000









############################################################################

###
# set timestep of integrator

timestep 0.01

###
# run integration for a number of steps
###
#run 0
#variable r equal c_1
#if "$r < 63.1" then "quit 1"

# lj potential minimum, cause molecule to explore
run 100000
Generated 0 of 0 mixed pair_coeff terms from geometric mixing rule
Last active /omp style is angle_style cosine/omp
Neighbor list info ...
  update: every = 1 steps, delay = 1 steps, check = yes
  max neighbors/atom: 2000, page size: 100000
  master list distance cutoff = 5.1224615
  ghost atom cutoff = 5.1224615
  binsize = 2.5612308, bins = 781 781 781
  1 neighbor lists, perpetual/occasional/extra = 1 0 0
  (1) pair lj/cut/omp, perpetual
      attributes: half, newton on, omp
      pair build: half/bin/newton/omp
      stencil: half/bin/3d
      bin: standard
WARNING: Communication cutoff 5.12246152962189 is shorter than a bond length based estimate of 5.455. This may lead to errors. (src/comm.cpp:723)
Per MPI rank memory allocation (min/avg/max) = 1862 | 1862 | 1862 Mbytes
   Step          Temp         Enthalpy         c_1      
         0   0              13.25586       95.606481    
      1000   1.0285919      18.681172      94.533178    
      2000   0.97519818     18.730926      93.753791    
      3000   1.0618638      18.824435      93.183971    
      4000   1.0409436      19.22536       92.597859    
      5000   1.0212507      18.914448      92.112401    
      6000   0.994541       19.773865      91.435653    
      7000   0.9783825      19.010609      90.941877    
      8000   1.0040614      19.413342      90.485997    
      9000   0.99237018     19.388332      90.086887    
     10000   0.9881785      19.359177      89.779697    
     11000   1.0193553      19.522746      89.398834    
     12000   0.97401119     19.388226      89.096638    
     13000   1.0090242      19.663104      88.690806    
     14000   1.0193823      19.894583      88.418128    
     15000   1.0106193      19.874884      88.006276    
     16000   0.98488782     19.958914      87.848103    
     17000   0.98262781     19.732806      87.69123     
     18000   1.0539127      19.785288      87.426124    
     19000   0.96386536     19.639689      87.390877    
     20000   1.0253875      19.928794      87.030807    
     21000   0.96948543     19.898582      86.772393    
     22000   0.94802392     19.421909      86.358478    
     23000   1.0301336      19.93712       86.061       
     24000   0.99282368     19.64199       85.899415    
     25000   0.97545141     19.93491       85.828699    
     26000   0.96876802     19.493241      85.421598    
     27000   0.99433479     20.385736      85.111307    
     28000   1.0447106      20.040719      85.001943    
     29000   1.0212439      19.92326       84.834339    
     30000   1.0515588      19.646106      84.816188    
     31000   0.98823883     20.210909      84.694876    
     32000   0.98490604     19.652163      84.521438    
     33000   1.0556126      20.203485      84.394756    
     34000   0.99362624     19.338485      84.080926    
     35000   1.0035494      20.182305      83.82138     
     36000   0.97912969     20.580659      83.568694    
     37000   0.99595351     20.022307      83.532748    
     38000   1.0287023      19.724584      83.420641    
     39000   0.9589507      19.610936      83.369396    
     40000   1.0104658      19.73663       83.023518    
     41000   1.0167746      20.329983      82.7756      
     42000   1.0667582      20.329463      82.604165    
     43000   1.025951       20.422292      82.20095     
     44000   0.98956668     20.074279      82.086758    
     45000   1.0264749      20.167383      81.845446    
     46000   1.0005429      20.134003      81.73786     
     47000   0.9976355      20.133783      81.302705    
     48000   0.96302441     20.228314      81.143509    
     49000   0.98003027     19.855632      81.230637    
     50000   0.97501289     20.238454      81.009348    
     51000   0.98573089     19.724866      80.896563    
     52000   0.96590951     20.074884      80.744956    
     53000   0.98177833     19.543461      80.855755    
     54000   0.97580138     20.136247      80.578426    
     55000   0.97935752     20.178176      80.239311    
     56000   1.0140646      20.273234      79.972673    
     57000   1.0084309      19.714339      79.802234    
     58000   1.011633       20.40159       79.480048    
     59000   1.0082188      20.490039      79.21329     
     60000   1.0014767      20.49356       79.00176     
     61000   1.003314       20.485761      79.011592    
     62000   0.97737067     20.168705      78.829285    
     63000   1.0306564      20.167254      78.726315    
     64000   0.98291317     20.317297      78.522687    
     65000   1.0054605      19.786688      78.15045     
     66000   1.0022196      20.470751      78.070802    
     67000   0.96743963     20.284919      77.900861    
     68000   1.0096616      20.033489      77.783138    
     69000   0.99179752     20.331105      77.775654    
     70000   1.0285672      20.357079      77.621848    
     71000   0.97031959     20.430707      77.755573    
     72000   0.96187776     20.223021      77.832999    
     73000   1.0032006      20.54627       77.431014    
     74000   1.0386849      20.442329      77.128768    
     75000   1.0392618      20.33351       76.839325    
     76000   1.0131653      20.253717      76.754425    
     77000   1.0082784      20.238982      76.72588     
     78000   1.0060286      19.758149      76.716523    
     79000   0.97617981     19.860567      76.567652    
     80000   1.014671       20.505044      76.309651    
     81000   0.9820484      20.391627      76.160427    
     82000   1.0328894      20.356462      76.205985    
     83000   0.96253978     20.183905      76.16822     
     84000   0.98969165     20.599074      76.190058    
     85000   0.98793703     20.067441      76.094259    
     86000   1.0169464      20.515765      75.940914    
     87000   1.0130157      20.542658      76.100957    
     88000   0.98493149     20.614957      76.02167     
     89000   1.0013798      20.245975      75.979534    
     90000   1.007504       20.133764      76.137177    
     91000   0.98051771     20.413967      76.085025    
     92000   1.0104748      20.321767      76.059532    
     93000   1.0321329      20.148018      75.990391    
     94000   1.007527       20.057044      75.632429    
     95000   0.957321       20.385882      75.545814    
     96000   1.0206538      20.687138      75.392554    
     97000   1.0102276      20.026544      75.33205     
     98000   1.0137945      21.03245       75.057503    
     99000   1.0135954      20.290851      75.091997    
    100000   1.0306311      20.027412      74.917349    
Loop time of 343.532 on 2 procs for 100000 steps with 1101 atoms

Performance: 251505.037 tau/day, 291.094 timesteps/s
103.7% CPU use with 1 MPI tasks x 2 OpenMP threads

MPI task timing breakdown:
Section |  min time  |  avg time  |  max time  |%varavg| %total
---------------------------------------------------------------
Pair    | 1.5188     | 1.5188     | 1.5188     |   0.0 |  0.44
Bond    | 2.7747     | 2.7747     | 2.7747     |   0.0 |  0.81
Neigh   | 332.36     | 332.36     | 332.36     |   0.0 | 96.75
Comm    | 0.04417    | 0.04417    | 0.04417    |   0.0 |  0.01
Output  | 0.4009     | 0.4009     | 0.4009     |   0.0 |  0.12
Modify  | 6.0239     | 6.0239     | 6.0239     |   0.0 |  1.75
Other   |            | 0.4057     |            |       |  0.12

Nlocal:           1101 ave        1101 max        1101 min
Histogram: 1 0 0 0 0 0 0 0 0 0
Nghost:              0 ave           0 max           0 min
Histogram: 1 0 0 0 0 0 0 0 0 0
Neighs:           7843 ave        7843 max        7843 min
Histogram: 1 0 0 0 0 0 0 0 0 0

Total # of neighbors = 7843
Ave neighs/atom = 7.1235241
Ave special neighs/atom = 1.9981835
Neighbor list builds = 1170
Dangerous builds = 0

# Replace lj potential, now collapse
pair_style      lj/cut 3

# Cutoff simul when gyration under 7
# Variable created with equal requires v_ + 'name'
fix 3 all halt 1000 v_rog < 7

run 3000000
Generated 0 of 0 mixed pair_coeff terms from geometric mixing rule
Last active /omp style is angle_style cosine/omp
Per MPI rank memory allocation (min/avg/max) = 1862 | 1862 | 1862 Mbytes
   Step          Temp         Enthalpy         c_1      
    100000   1.0306311      19.328502      74.917349    
    101000   1.0010799      19.484067      74.725885    
    102000   0.98230194     19.194433      74.560114    
    103000   1.018209       19.429179      74.421809    
    104000   1.0263298      19.078197      74.18824     
    105000   1.0006842      19.140375      74.062154    
    106000   1.0075425      19.239841      73.837795    
    107000   0.99464316     20.02397       73.893308    
    108000   1.0031876      19.1802        73.63936     
    109000   1.0322065      19.906231      73.628383    
    110000   0.94211574     19.08855       73.54343     
    111000   1.0158896      19.334716      73.203552    
    112000   1.0573928      19.349189      73.094031    
    113000   1.0109337      19.352399      72.859298    
    114000   1.0195533      19.208902      72.880008    
    115000   1.0104034      18.856003      72.791479    
    116000   0.98707599     18.969453      72.684315    
    117000   0.96454888     18.970877      72.5727      
    118000   1.0164283      18.615569      72.386744    
    119000   1.008168       19.263351      72.2545      
    120000   1.0193521      19.447644      72.11378     
    121000   1.0040756      19.008706      71.90298     
    122000   0.99702952     19.24356       71.739528    
    123000   0.98537318     19.183915      71.666075    
    124000   1.0041454      18.962117      71.494871    
    125000   1.0482567      19.273706      71.493824    
    126000   0.97238639     19.03507       71.326109    
    127000   1.0647342      19.157462      71.11085     
    128000   1.0000843      18.92121       70.919683    
    129000   1.0046455      19.053907      70.505079    
    130000   0.95231794     18.885655      70.451497    
    131000   1.0033162      19.208962      70.436533    
    132000   0.97710987     18.807969      70.042436    
    133000   1.0084923      19.364462      69.987329    
    134000   0.99773044     18.746692      69.8391      
    135000   1.0024752      19.075572      69.688904    
    136000   1.0300464      18.875052      69.589739    
    137000   0.99975664     18.90259       69.352355    
    138000   0.96049016     18.404503      69.218697    
    139000   1.0161814      18.910285      69.12549     
    140000   1.0035485      19.037704      68.923824    
    141000   1.0001324      19.39978       68.518539    
    142000   0.99618076     18.639458      68.421717    
    143000   1.0016508      19.148419      68.142683    
    144000   0.99883293     18.697028      67.97515     
    145000   0.98042388     18.552629      67.788118    
    146000   0.99707741     19.045005      67.621927    
    147000   0.97481375     19.348975      67.61077     
    148000   0.97092678     19.244411      67.421325    
    149000   1.0303536      18.631093      67.194028    
    150000   0.96611772     18.562994      66.986903    
    151000   0.95044426     18.376579      66.894253    
    152000   1.0195608      19.060973      66.79787     
    153000   0.99154853     18.730966      66.540266    
    154000   1.0446299      19.240596      66.516551    
    155000   0.99777195     18.854258      66.346548    
    156000   1.0206368      18.855413      66.122137    
    157000   1.008246       18.693521      65.930898    
    158000   1.0289565      18.779816      65.690285    
    159000   1.0073395      18.754449      65.489393    
    160000   0.98891674     18.769919      65.358212    
    161000   1.0258663      18.710738      65.129375    
    162000   0.98157849     18.818621      64.829877    
    163000   1.0090382      18.740264      64.665782    
    164000   0.98932575     18.205258      64.614411    
    165000   0.9948759      18.388871      64.536974    
    166000   1.0436417      18.679321      64.411641    
    167000   0.98079265     18.329946      64.101925    
    168000   1.0360467      18.398177      64.062315    
    169000   0.96704755     17.744248      63.844301    
    170000   1.0259294      18.503926      63.758269    
    171000   1.0053443      18.241905      63.75296     
    172000   1.0000575      18.095283      63.686811    
    173000   0.95475826     18.464777      63.314155    
    174000   0.99952269     18.689699      63.129397    
    175000   1.0330488      18.868133      63.054784    
    176000   0.96843514     17.907798      63.155323    
    177000   0.9706395      18.281559      63.167756    
    178000   0.97910204     18.187818      63.001369    
    179000   1.0290081      18.64235       62.695556    
    180000   0.99076675     18.707341      62.681586    
    181000   0.99240297     18.481017      62.471616    
    182000   1.0038269      18.887218      62.129599    
    183000   1.0261545      17.834825      62.001211    
    184000   1.0239213      17.79761       61.593305    
    185000   1.0043495      18.571437      61.275405    
    186000   1.0368675      18.195808      61.150563    
    187000   1.0424283      18.203763      61.072517    
    188000   1.0091895      18.025934      60.832707    
    189000   0.99975085     18.457347      60.859986    
    190000   1.0281275      18.018772      61.010137    
    191000   1.0123751      18.428481      60.889954    
    192000   1.0387788      18.71436       60.680065    
    193000   0.98499243     18.247395      60.688668    
    194000   0.95902862     17.615505      60.485443    
    195000   1.0233513      18.179615      60.505758    
    196000   1.0047486      18.275926      60.465404    
    197000   0.98945102     18.241466      60.423408    
    198000   1.0040795      18.144719      60.069497    
    199000   1.0133828      18.154203      59.743711    
    200000   1.0088697      17.983481      59.514648    
    201000   1.0216694      17.782568      59.641391    
    202000   0.98351301     18.098109      59.407176    
    203000   0.98519619     17.421933      59.117676    
    204000   0.98785569     18.141392      58.981654    
    205000   1.0352671      18.134683      58.750069    
    206000   0.9696957      17.861534      58.420548    
    207000   1.0255409      18.285253      58.206595    
    208000   0.95244097     18.214009      58.130847    
    209000   0.99547063     17.722241      57.773202    
    210000   1.0096118      17.908007      57.61328     
    211000   1.0037671      18.362956      57.368376    
    212000   0.94176004     17.562153      57.139822    
    213000   1.0101807      17.708172      57.046543    
    214000   0.98742718     17.726408      56.741922    
    215000   1.0243287      17.639274      56.332462    
    216000   0.97937076     17.512932      56.16464     
    217000   0.965967       17.661762      56.148582    
    218000   0.98813149     18.244223      56.115506    
    219000   1.0325584      17.876986      55.993199    
    220000   1.0280919      17.827289      55.880713    
    221000   1.0048335      17.662945      55.725899    
    222000   1.0127201      18.263621      55.684872    
    223000   1.0047566      17.415284      55.518589    
    224000   1.0241494      17.889027      55.539033    
    225000   0.96560203     17.409304      55.49082     
    226000   0.99449476     17.728362      55.388842    
    227000   0.94776369     17.514533      55.341888    
    228000   1.0108299      17.935138      55.257897    
    229000   0.99917112     17.641482      55.267129    
    230000   0.98022956     17.370459      55.033779    
    231000   1.0110629      17.705326      54.991615    
    232000   1.0196613      17.955743      55.119956    
    233000   0.98378419     17.579211      55.049345    
    234000   0.99533409     17.504699      54.817925    
    235000   1.0286924      17.563932      54.928467    
    236000   1.0147759      17.892839      54.891032    
    237000   0.99499915     18.075488      55.02517     
    238000   1.0073399      17.414201      55.180094    
    239000   1.0437208      17.876486      55.184751    
    240000   1.0228123      17.458652      55.052591    
    241000   1.0193977      17.768967      54.696978    
    242000   0.97278135     18.138441      54.51785     
    243000   0.96862546     17.862263      54.422757    
    244000   0.97664268     17.01011       54.457772    
    245000   1.0322441      17.980347      54.358234    
    246000   0.98962425     17.640829      54.020807    
    247000   0.96063872     17.683357      53.961988    
    248000   1.0119681      17.721193      53.935455    
    249000   1.017193       17.25016       53.738686    
    250000   1.0118463      17.752427      53.778661    
    251000   1.01517        17.600245      53.803742    
    252000   1.0226877      17.723006      53.979104    
    253000   0.99626557     17.586553      53.820901    
    254000   1.0648157      17.76143       53.843625    
    255000   0.94671407     17.881891      53.763168    
    256000   0.95251245     17.304813      53.842162    
    257000   1.0044138      17.022412      53.559986    
    258000   1.0042677      17.588963      53.211007    
    259000   1.0104412      17.667153      53.315103    
    260000   0.97367936     17.004481      53.283588    
    261000   0.98540124     17.349728      52.964761    
    262000   1.0400958      18.014221      52.870683    
    263000   0.98928969     17.925347      52.806166    
    264000   0.95421631     17.56269       52.663982    
    265000   0.96939146     18.018841      52.482717    
    266000   1.0062399      18.343321      52.531528    
    267000   1.004482       16.994414      52.683629    
    268000   1.0410627      17.848663      52.76816     
    269000   0.98374711     17.700004      52.822857    
    270000   1.0112258      17.940472      52.722184    
    271000   0.97768516     17.318578      52.453247    
    272000   1.0384546      17.633058      52.35958     
    273000   0.98224674     17.5926        52.085111    
    274000   0.98736201     17.807712      51.866103    
    275000   1.0191348      17.077839      51.837506    
    276000   1.0349775      18.323229      51.804039    
    277000   1.0010878      17.837994      51.68237     
    278000   0.97423594     17.471234      51.754749    
    279000   0.96886483     17.457636      51.555005    
    280000   1.0346393      17.612006      51.540299    
    281000   0.99455734     17.721216      51.485699    
    282000   0.98373796     17.385393      51.437574    
    283000   1.0003228      17.630531      51.382902    
    284000   1.0111673      17.96705       51.316642    
    285000   0.98291542     17.786346      51.167619    
    286000   0.98612372     17.797753      51.168218    
    287000   0.98080696     17.644383      51.124041    
    288000   0.97930744     18.073698      51.08216     
    289000   1.0064381      17.699666      50.920155    
    290000   0.99221637     16.92291       50.799477    
    291000   1.0596493      17.912255      50.47846     
    292000   0.99932306     17.303711      50.703472    
    293000   1.0198118      17.856768      50.678867    
    294000   0.99699356     17.541271      50.671906    
    295000   0.96654945     17.339557      50.554113    
    296000   0.98766809     17.041611      50.640163    
    297000   1.0239492      17.898416      50.275443    
    298000   0.95655584     17.340211      50.310411    
    299000   1.024018       17.822578      50.342822    
    300000   1.0072465      17.800885      50.310243    
    301000   1.0582415      17.581755      50.396286    
    302000   1.0464023      17.638761      50.42949     
    303000   1.0360526      17.956099      50.712882    
    304000   1.0320721      18.086966      50.521881    
    305000   1.0210706      17.178353      50.494556    
    306000   0.97127441     18.022871      50.527353    
    307000   1.0218217      17.602017      50.35373     
    308000   0.9630892      17.481314      50.345427    
    309000   1.0053442      17.716079      50.171892    
    310000   0.96411507     17.348881      50.098907    
    311000   1.0047632      18.34484       50.192487    
    312000   0.98402631     17.277108      50.135047    
    313000   1.0439075      17.72654       50.043135    
    314000   0.98684137     17.029034      50.039874    
    315000   1.0535175      17.600081      50.096825    
    316000   0.98356733     17.692987      50.05828     
    317000   1.0110729      17.389669      50.244999    
    318000   1.0290512      17.529164      50.058869    
    319000   0.99042936     17.726599      49.869296    
    320000   1.0202108      17.390917      49.633916    
    321000   1.0076215      17.860939      49.656471    
    322000   0.94925081     17.431007      49.581912    
    323000   1.017381       17.418217      49.534672    
    324000   0.97419895     17.302967      49.476832    
    325000   1.0006574      17.473162      49.332352    
    326000   1.0185309      17.9613        49.160227    
    327000   1.0372264      17.878935      48.958997    
    328000   1.0379209      17.647456      48.830262    
    329000   0.9907165      17.718587      48.908363    
    330000   1.0126854      17.940838      48.647052    
    331000   0.90580309     17.816605      48.74956     
    332000   0.99435629     17.952517      48.802025    
    333000   1.0332471      17.542111      48.831089    
    334000   1.0356066      16.982417      48.665932    
    335000   0.99609951     17.116761      48.849497    
    336000   0.98509832     17.269099      48.69703     
    337000   1.0199983      17.630118      48.786092    
    338000   1.0300088      17.216234      48.688086    
    339000   1.0264798      17.33402       48.610341    
    340000   1.003006       17.267245      48.400031    
    341000   0.99939047     18.050081      48.222301    
    342000   0.95868287     16.943468      47.993706    
    343000   0.96472299     17.19672       47.955224    
    344000   0.99585636     18.037811      47.860746    
    345000   0.9940004      17.54785       47.779947    
    346000   1.0133123      17.354146      47.904698    
    347000   1.0123018      17.583716      47.66763     
    348000   1.0080414      17.628754      47.72897     
    349000   0.98921957     17.398856      47.625032    
    350000   0.95104959     17.303736      47.635903    
    351000   0.98980216     17.56267       47.479889    
    352000   0.97635675     18.019567      47.607665    
    353000   0.99066081     17.121383      47.744257    
    354000   0.98903214     17.485365      47.573963    
    355000   0.98479853     17.892497      47.486787    
    356000   1.0092396      17.54211       47.428701    
    357000   0.99176201     16.946963      47.439117    
    358000   0.96927195     17.730934      47.332421    
    359000   0.98700923     17.535702      47.145821    
    360000   1.0216344      17.454743      47.255115    
    361000   0.97276223     17.574908      47.297297    
    362000   1.0094048      17.698386      47.092155    
    363000   1.0108594      18.224483      47.003111    
    364000   1.0175645      18.043688      46.812983    
    365000   0.98355561     17.964768      46.680966    
    366000   1.0075047      17.369318      46.723637    
    367000   1.0129571      17.726438      46.556163    
    368000   0.97876572     18.001367      46.654406    
    369000   0.99050768     17.473363      46.54227     
    370000   0.99036713     17.875242      46.502288    
    371000   0.9737426      17.760052      46.489274    
    372000   0.98300572     17.850447      46.41271     
    373000   1.0024013      17.79253       46.287223    
    374000   0.96913688     17.683695      46.046185    
    375000   0.98765965     17.57864       46.000968    
    376000   1.0361491      17.609253      45.665526    
    377000   0.96396246     17.05064       45.43699     
    378000   0.99169751     16.89737       45.380146    
    379000   1.0077784      17.52933       45.314126    
    380000   0.98977804     17.657345      45.146652    
    381000   0.98541382     17.004455      45.035022    
    382000   0.99966006     17.332873      44.997743    
    383000   0.97106039     17.481893      44.867317    
    384000   0.98101925     17.632577      44.900712    
    385000   1.0080694      17.571293      44.844029    
    386000   1.0207214      17.872995      44.877151    
    387000   1.0637672      17.95494       44.805239    
    388000   1.0303562      17.647884      44.574161    
    389000   0.96438346     17.222309      44.548481    
    390000   1.0011215      17.075122      44.355972    
    391000   1.0430492      17.08821       44.30809     
    392000   0.97027532     17.629982      44.038566    
    393000   1.0220877      17.421564      43.972637    
    394000   0.98222305     17.047354      43.833406    
    395000   1.0366988      17.579272      43.587462    
    396000   0.97503786     17.466932      43.41087     
    397000   1.031031       18.125013      43.373038    
    398000   0.99046768     17.918633      43.339765    
    399000   1.0105935      17.727562      43.187355    
    400000   1.0005222      17.372402      43.408761    
    401000   0.9968126      16.867368      43.449701    
    402000   0.97095746     16.952416      43.289787    
    403000   1.0128593      17.569731      43.324649    
    404000   1.0044053      17.821814      43.204006    
    405000   1.0233509      18.015848      43.056388    
    406000   0.98766476     17.33166       42.860945    
    407000   1.0075673      17.283222      42.696463    
    408000   0.97750311     17.617754      42.76754     
    409000   1.0436197      17.04913       42.629871    
    410000   1.0038224      17.402624      42.714969    
    411000   0.98837879     17.875176      42.568666    
    412000   0.96868061     17.441722      42.536599    
    413000   0.99959569     17.653673      42.244468    
    414000   1.0119629      17.751861      42.283787    
    415000   1.0042939      16.971385      42.100695    
    416000   1.0195963      17.332025      42.073695    
    417000   0.97898676     17.532141      41.919526    
    418000   0.97163066     17.173915      41.880102    
    419000   1.0221145      17.680597      41.840427    
    420000   1.0263509      17.617473      41.545635    
    421000   1.0325533      18.105395      41.504972    
    422000   1.0535556      17.57622       41.286707    
    423000   1.0228243      17.284425      41.202448    
    424000   0.98921447     17.662873      40.943852    
    425000   0.98081421     17.878914      40.913967    
    426000   1.0131018      17.750893      40.803145    
    427000   0.98447092     17.456657      40.710991    
    428000   0.99659293     17.25901       40.733988    
    429000   0.9730142      17.366671      40.437332    
    430000   1.0306061      16.9095        40.229817    
    431000   0.98704393     17.481226      40.331918    
    432000   1.0370207      17.812041      40.347506    
    433000   0.99618252     17.329234      40.48002     
    434000   0.99628854     17.233166      40.217358    
    435000   0.99753784     17.081566      39.963536    
    436000   1.0219415      17.680448      39.713347    
    437000   1.0021731      17.574531      39.608818    
    438000   1.0330203      17.206349      39.230962    
    439000   0.97351423     17.531557      38.990165    
    440000   1.0189883      17.362378      38.908157    
    441000   1.025817       17.848814      38.789325    
    442000   0.98823656     17.04306       38.694525    
    443000   0.97444515     17.260685      38.679915    
    444000   0.94539518     17.252632      38.485665    
    445000   0.95854648     17.43275       38.271367    
    446000   1.001848       17.447277      38.141379    
    447000   1.0100526      17.422213      38.132878    
    448000   0.98482856     18.032697      38.133132    
    449000   0.98898902     17.305867      38.200695    
    450000   1.007059       17.768085      38.068784    
    451000   0.99194168     17.416854      37.976008    
    452000   1.0132851      17.490209      37.798632    
    453000   1.0350507      17.475636      37.73609     
    454000   0.98866949     17.193533      37.801312    
    455000   1.020399       17.561279      37.788428    
    456000   0.9779182      17.752769      37.639842    
    457000   1.0017945      17.383497      37.440265    
    458000   1.0127623      17.387752      37.479466    
    459000   1.0137704      17.451065      37.590323    
    460000   1.0496104      18.07398       37.514016    
    461000   1.0199356      17.529534      37.392415    
    462000   1.0079813      17.32824       37.309979    
    463000   1.0335793      17.797239      37.191288    
    464000   0.96529149     17.755837      36.994617    
    465000   1.0028015      17.152613      36.739577    
    466000   1.0068786      17.211083      36.783972    
    467000   1.0244294      17.464037      36.536931    
    468000   1.0153242      17.458858      36.486646    
    469000   1.0125541      17.196679      36.363526    
    470000   1.0151594      17.643563      36.254149    
    471000   1.0279933      17.922157      36.16599     
    472000   0.98267401     17.478349      35.996066    
    473000   0.96635249     16.809833      36.083233    
    474000   0.98190963     17.326831      36.214804    
    475000   1.0084639      18.114079      36.208215    
    476000   1.0035735      17.693747      36.231463    
    477000   1.0261546      17.432378      35.912538    
    478000   0.98761642     16.857295      35.870267    
    479000   0.99473132     17.591769      35.862257    
    480000   0.9788678      17.932202      35.743076    
    481000   1.0151104      17.266674      35.608338    
    482000   1.0247092      17.354617      35.472655    
    483000   1.0257145      17.375692      35.37231     
    484000   0.99730251     17.413581      35.256968    
    485000   0.99518716     17.26984       35.178694    
    486000   0.96634996     17.014304      35.026687    
    487000   0.96287745     17.203583      34.919075    
    488000   1.0067451      17.832991      34.646979    
    489000   1.0379129      17.554851      34.588687    
    490000   1.0135931      17.313687      34.343232    
    491000   0.9793786      17.858653      34.295132    
    492000   1.0035566      17.664397      34.350586    
    493000   0.96477853     17.306154      33.914244    
    494000   1.0379818      17.461094      33.918537    
    495000   0.96708118     17.558182      33.885636    
    496000   1.0113623      16.88532       33.976024    
    497000   1.0161353      17.495978      33.930182    
    498000   1.0266791      17.978911      33.845144    
    499000   1.0156357      17.003233      33.907252    
    500000   0.99867324     17.450901      33.875932    
    501000   1.0020328      17.378171      33.910744    
    502000   1.0122596      17.682313      33.832028    
    503000   1.0021048      17.592961      33.761029    
    504000   0.95818494     17.08908       33.752889    
    505000   0.98945042     17.490961      33.687167    
    506000   1.0190424      17.526212      33.61593     
    507000   1.0494374      17.28177       33.585859    
    508000   0.99248355     17.14629       33.783002    
    509000   0.9785084      17.856979      33.750017    
    510000   0.98778977     17.941003      33.554173    
    511000   0.97266217     17.841209      33.69065     
    512000   1.0010808      17.264169      33.756075    
    513000   0.97361201     17.608916      33.615045    
    514000   1.0138019      17.294559      33.741003    
    515000   1.007907       17.971614      33.669392    
    516000   0.97798805     17.5388        33.843558    
    517000   1.0087053      17.485366      33.77803     
    518000   1.0388553      17.00393       33.817952    
    519000   0.97696223     17.306025      33.705678    
    520000   1.0325365      17.30598       33.598348    
    521000   1.0159255      16.963972      33.512221    
    522000   0.96889029     17.250224      33.359854    
    523000   1.0105825      17.69257       33.579524    
    524000   0.99077908     17.730827      33.62846     
    525000   1.01737        17.882772      33.502098    
    526000   1.0039447      17.507937      33.401248    
    527000   1.0370057      17.806489      33.452043    
    528000   0.99787335     17.687602      33.396821    
    529000   0.98366011     17.750415      33.200374    
    530000   1.0402963      18.004844      32.985766    
    531000   1.0038346      17.654734      32.752612    
    532000   1.0524622      17.804222      32.510417    
    533000   0.96504593     17.561605      32.356391    
    534000   0.97835578     17.665035      32.419101    
    535000   0.96014471     17.498687      32.389179    
    536000   0.9856236      17.364893      32.4089      
    537000   1.0300482      18.090945      32.317295    
    538000   0.98790388     16.849852      32.236549    
    539000   1.0296773      16.9376        32.05615     
    540000   0.99808778     17.222041      31.933443    
    541000   1.0002769      17.456655      31.904544    
    542000   0.96217545     17.73331       31.85125     
    543000   0.9898904      16.930052      31.688806    
    544000   1.0021299      17.176847      31.624578    
    545000   1.015573       17.619575      31.674756    
    546000   0.95027727     17.126489      31.740043    
    547000   0.98234727     17.019656      31.635427    
    548000   1.0030675      17.074985      31.482765    
    549000   1.0306325      17.261602      31.415582    
    550000   0.97323706     17.406931      31.348638    
    551000   0.99792711     17.754467      31.478144    
    552000   1.0020747      17.160954      31.494502    
    553000   1.000301       17.594134      31.333026    
    554000   1.0036769      17.366919      31.244579    
    555000   1.0109338      17.155949      31.22957     
    556000   1.08531        17.888129      31.297411    
    557000   0.97546201     17.598899      31.179503    
    558000   1.0220087      18.024089      31.144241    
    559000   1.0021889      17.400737      31.124932    
    560000   0.97800849     17.395904      30.998349    
    561000   0.98694876     17.079901      30.997709    
    562000   0.96293714     17.272343      30.906462    
    563000   1.0036949      17.559515      30.748723    
    564000   1.0240104      17.737181      30.724071    
    565000   0.93770293     16.920216      30.611938    
    566000   0.99666644     17.435432      30.667544    
    567000   0.97583675     17.393724      30.620553    
    568000   0.98513795     16.927545      30.502756    
    569000   1.0887632      17.610791      30.58657     
    570000   0.98453508     16.97878       30.584561    
    571000   0.98963451     17.430798      30.676832    
    572000   0.96512815     17.076249      30.65737     
    573000   1.0241564      17.240294      30.556467    
    574000   1.0102662      17.866073      30.61807     
    575000   1.0230052      17.21929       30.530164    
    576000   0.98169484     17.259339      30.385556    
    577000   0.97608813     17.131361      30.284367    
    578000   1.0528285      17.85504       30.157593    
    579000   1.015142       17.915731      30.205877    
    580000   0.95578217     17.412562      30.184766    
    581000   0.99262909     17.764608      30.336764    
    582000   0.99488167     17.775211      30.288084    
    583000   1.0014102      17.708721      30.18624     
    584000   1.0059792      17.564371      30.109278    
    585000   1.0013537      18.077831      29.9933      
    586000   0.9872082      16.854886      30.097763    
    587000   1.0053412      17.744625      29.899048    
    588000   1.0413         18.454234      29.85762     
    589000   1.0653696      17.185137      29.626776    
    590000   1.0248219      17.847213      29.394307    
    591000   1.0112932      17.201593      29.372212    
    592000   0.9800319      17.915772      29.339523    
    593000   1.0023126      17.713917      29.203067    
    594000   0.99285341     17.398184      29.150433    
    595000   0.98222556     16.591727      28.951052    
    596000   0.98534424     17.001905      28.898422    
    597000   0.99394737     17.243182      28.763165    
    598000   0.99824405     17.80796       28.825606    
    599000   1.0241479      17.5707        28.951896    
    600000   0.9963675      17.559036      28.91827     
    601000   0.99921983     17.586987      29.048558    
    602000   1.0030377      17.929298      28.793448    
    603000   1.0018032      17.44283       28.705846    
    604000   0.93231203     17.836151      28.773415    
    605000   0.99505741     17.143227      28.630763    
    606000   1.0507133      17.355031      28.616009    
    607000   1.0238006      18.011582      28.671927    
    608000   0.95281271     17.706093      28.89938     
    609000   1.0318652      17.492356      28.84381     
    610000   1.0035567      17.185091      28.974725    
    611000   0.99308214     17.258063      29.082638    
    612000   1.0212629      17.136988      28.962981    
    613000   1.008467       17.310323      29.033319    
    614000   0.97551724     17.66103       28.837128    
    615000   1.0172291      17.828739      28.628061    
    616000   0.96248907     17.669181      28.381406    
    617000   1.0233896      17.491764      28.264153    
    618000   1.0000489      17.478126      28.102291    
    619000   1.0526731      17.716579      28.129454    
    620000   0.96811898     17.311938      28.062256    
    621000   0.98471338     17.399835      28.078818    
    622000   0.98833826     17.336537      27.788541    
    623000   1.0328543      17.408787      27.838901    
    624000   1.0044056      17.402583      27.86613     
    625000   0.97719716     17.493372      27.813057    
    626000   1.0081196      16.904333      27.582113    
    627000   1.0035582      17.673166      27.660734    
    628000   0.99199736     16.923558      27.497602    
    629000   1.0236924      16.933899      27.484004    
    630000   1.0260015      17.897442      27.306488    
    631000   0.98277297     17.710844      27.107462    
    632000   1.0297512      16.855862      26.855518    
    633000   1.0174388      17.930885      26.716378    
    634000   0.96970403     17.183174      26.691979    
    635000   0.98574449     17.688772      26.749039    
    636000   1.0364639      17.241653      26.742894    
    637000   1.0075981      17.170311      26.891387    
    638000   0.98496093     17.48814       26.543711    
    639000   1.000037       17.623366      26.598659    
    640000   0.9848732      17.827486      26.736694    
    641000   0.96878667     17.059018      26.717616    
    642000   1.0020736      17.341757      26.650341    
    643000   1.0154507      16.986144      26.33451     
    644000   1.0145954      17.571578      26.227556    
    645000   0.97106449     17.900321      26.223392    
    646000   1.0153737      17.822786      26.174346    
    647000   0.99969557     17.372394      26.084384    
    648000   0.96251545     17.893111      26.236851    
    649000   0.98135662     17.80728       26.118623    
    650000   0.98727904     17.27727       26.100879    
    651000   0.98755981     17.531632      26.101455    
    652000   1.0280338      17.237034      25.883143    
    653000   0.97798291     16.857405      25.797398    
    654000   0.98581878     17.111301      25.813853    
    655000   1.004243       16.801895      25.869411    
    656000   1.0215083      17.356614      25.908523    
    657000   1.0067123      17.72651       25.864236    
    658000   0.98772866     17.642184      25.852836    
    659000   1.0122312      17.63341       25.879762    
    660000   0.98058241     17.644444      25.698425    
    661000   1.0110417      17.432659      25.646594    
    662000   0.98251415     17.410076      25.427995    
    663000   0.9956355      16.718363      25.249627    
    664000   0.97258883     17.146184      25.07311     
    665000   1.0437747      17.476869      25.06619     
    666000   1.0080257      17.09822       24.972376    
    667000   0.99883431     17.730434      25.033773    
    668000   0.97594809     17.034409      24.903176    
    669000   1.0086887      17.678508      24.756327    
    670000   1.0108214      17.169762      24.582523    
    671000   1.0092523      17.959634      24.553767    
    672000   1.0177561      17.896913      24.417571    
    673000   0.96847219     17.327332      24.430088    
    674000   1.0430735      17.291709      24.277843    
    675000   1.033174       17.78439       24.497187    
    676000   1.018157       17.649084      24.601809    
    677000   1.0478013      17.66588       24.581426    
    678000   1.0087285      17.362781      24.505189    
    679000   1.0248646      17.570102      24.260936    
    680000   0.99573726     17.402259      24.390833    
    681000   1.0279373      17.362156      24.383226    
    682000   0.99739247     17.51623       24.226309    
    683000   1.0157976      17.406083      23.984229    
    684000   1.0095512      17.167504      23.977186    
    685000   0.97927643     17.619812      23.763417    
    686000   0.97687243     16.71369       23.917268    
    687000   1.0479496      18.007354      23.901701    
    688000   1.0180994      17.148378      23.756916    
    689000   0.99599408     18.09712       23.750264    
    690000   0.99663926     17.256253      23.792053    
    691000   0.98463674     17.090184      23.778722    
    692000   1.0164226      17.486724      23.818683    
    693000   0.98749173     17.370262      23.617329    
    694000   1.000671       17.431384      23.56125     
    695000   1.0048628      17.77193       23.399561    
    696000   1.0280415      17.414965      23.348726    
    697000   1.0036297      17.490435      23.304514    
    698000   1.0285848      17.50063       23.150432    
    699000   1.0107983      17.555199      23.16601     
    700000   0.97875961     16.960081      23.138525    
    701000   0.99153321     17.636687      23.049421    
    702000   0.99025478     16.976873      23.177306    
    703000   1.0448254      17.791707      23.519251    
    704000   0.99174891     17.386091      23.452727    
    705000   1.008371       17.408272      23.363356    
    706000   0.95796069     17.000191      23.390158    
    707000   1.0081626      17.101755      23.393482    
    708000   1.0043326      17.226358      23.314764    
    709000   0.99176352     17.1448        23.279377    
    710000   1.0069178      17.409313      23.003859    
    711000   1.0319207      17.521007      22.905688    
    712000   0.98995106     17.499738      22.931194    
    713000   1.0220861      17.227725      22.869099    
    714000   1.0160605      17.446002      22.854919    
    715000   0.99017548     16.887088      22.804899    
    716000   0.99562514     16.946693      22.713688    
    717000   1.0231586      17.411539      22.612072    
    718000   0.99644844     17.492872      22.490037    
    719000   1.0171715      17.799593      22.588042    
    720000   0.98263415     17.412483      22.572448    
    721000   1.0014493      17.267993      22.481934    
    722000   1.0036157      17.0249        22.812967    
    723000   1.0202437      16.924326      22.801488    
    724000   0.99277081     17.212648      22.686387    
    725000   0.98291695     17.274847      22.753568    
    726000   0.9877807      16.809123      22.542392    
    727000   1.0401091      17.712277      22.381101    
    728000   0.9577201      17.466293      22.291754    
    729000   0.99630686     17.725709      22.13631     
    730000   0.96244606     17.642121      22.143023    
    731000   0.96302012     17.185003      22.181788    
    732000   0.96378245     17.319573      22.076439    
    733000   0.96579694     17.367984      22.235057    
    734000   0.98545863     17.086704      22.242943    
    735000   0.9581687      17.789188      22.065031    
    736000   0.9700636      17.055445      22.12307     
    737000   1.0040765      16.740762      22.088927    
    738000   0.98666563     17.114546      21.956493    
    739000   1.0063408      17.699211      21.8677      
    740000   1.0181994      17.549779      21.672173    
    741000   0.94825123     17.288256      21.667373    
    742000   1.0044156      17.341648      21.641301    
    743000   0.99894053     17.811282      21.544054    
    744000   1.019764       17.262608      21.527248    
    745000   0.99300868     17.623545      21.424954    
    746000   1.0095095      17.742103      21.258644    
    747000   0.99410617     17.306107      21.188232    
    748000   1.0138315      17.358295      21.022774    
    749000   1.0063737      17.164385      20.947051    
    750000   1.0138344      17.297925      20.743617    
    751000   0.99515134     16.802716      20.662609    
    752000   0.95344086     17.106342      20.687556    
    753000   1.0100612      17.588214      20.744357    
    754000   0.98885805     17.756959      20.555991    
    755000   0.98335375     17.157697      20.263651    
    756000   0.96879308     17.001809      20.276382    
    757000   0.9878004      17.265416      20.2025      
    758000   1.0281979      18.028019      20.35441     
    759000   1.000169       17.278842      20.184618    
    760000   1.0126214      17.624329      20.056022    
    761000   1.0087401      17.541712      19.911805    
    762000   1.0247473      17.726213      19.887318    
    763000   1.0042263      16.980934      19.909065    
    764000   0.96088643     17.635174      19.832431    
    765000   0.93280889     16.816017      19.907288    
    766000   0.9522218      17.19576       19.826264    
    767000   0.97939945     17.281589      19.846403    
    768000   0.98950474     17.187746      19.733217    
    769000   1.0115002      17.498205      19.733685    
    770000   1.0203979      17.060279      19.616436    
    771000   0.99703157     17.688812      19.336321    
    772000   1.0405221      17.839194      19.226118    
    773000   1.0285377      17.154695      19.453473    
    774000   0.96090118     17.954132      19.291008    
    775000   0.9754256      17.222549      19.053827    
    776000   1.0001085      17.383681      18.991181    
    777000   1.0050234      17.177867      19.188362    
    778000   0.96451817     17.94424       19.291328    
    779000   0.9842146      17.630713      19.211869    
    780000   1.0150015      17.485455      19.310162    
    781000   1.0055979      17.790898      19.235667    
    782000   0.98786343     16.917555      19.105204    
    783000   0.99602589     17.330711      18.880357    
    784000   1.0124039      16.963863      18.595616    
    785000   0.98077522     17.164975      18.368533    
    786000   0.99300472     16.971828      18.486282    
    787000   1.0514038      17.895785      18.545506    
    788000   0.98352274     16.881093      18.540024    
    789000   0.99392921     17.053331      18.373431    
    790000   1.0177436      18.079033      18.312923    
    791000   1.0189031      17.388014      18.393632    
    792000   1.0178904      17.082079      18.376211    
    793000   0.97903435     17.15661       18.237558    
    794000   1.0432589      17.21449       17.975711    
    795000   1.0533418      17.273945      17.814023    
    796000   1.0714467      17.490815      17.625157    
    797000   0.9647839      17.326012      17.441128    
    798000   0.99597642     17.50211       17.469486    
    799000   1.0021109      17.084194      17.500994    
    800000   0.98758935     16.956306      17.521876    
    801000   0.9852132      16.776303      17.363598    
    802000   1.0069626      17.199323      17.25797     
    803000   1.015913       17.192497      17.144726    
    804000   1.0287171      17.343846      16.899477    
    805000   0.97693795     17.540066      16.865145    
    806000   1.0616147      16.818967      16.560511    
    807000   1.0499591      17.158121      16.621758    
    808000   1.01815        17.720464      16.551293    
    809000   0.99035086     17.281571      16.377884    
    810000   0.9879361      17.364211      16.353944    
    811000   0.97390644     16.587638      16.270722    
    812000   0.99511018     17.366297      16.141237    
    813000   0.9964084      16.93979       15.866862    
    814000   1.0223547      17.083702      15.949533    
    815000   0.96969135     16.372977      15.795762    
    816000   1.0434662      17.416226      15.822225    
    817000   1.0181792      17.393045      15.941733    
    818000   0.98969712     17.082784      15.585531    
    819000   0.98994364     17.171311      15.318825    
    820000   1.0066553      17.235336      15.309803    
    821000   1.0082313      17.397091      15.273356    
    822000   1.0108583      17.178817      15.155046    
    823000   1.012177       16.859967      15.23958     
    824000   1.0416365      17.886586      14.987768    
    825000   0.95483188     17.138638      14.963028    
    826000   0.99987289     17.109229      14.929414    
    827000   1.0362162      17.437218      14.785381    
    828000   0.98815957     16.739019      14.813234    
    829000   1.0263271      17.128437      14.695466    
    830000   1.0356433      17.060782      14.401853    
    831000   1.0593446      17.036496      14.367201    
    832000   0.99158791     17.379598      14.459221    
    833000   0.97890334     16.547433      14.200359    
    834000   0.98519047     16.989924      14.266522    
    835000   0.96761486     17.310358      14.263129    
    836000   0.98634911     16.415848      14.333095    
    837000   1.0481123      17.107448      14.401468    
    838000   0.96164881     16.874176      14.422084    
    839000   0.98460911     17.015925      14.627606    
    840000   0.97787699     16.937289      14.687269    
    841000   1.0219024      18.0117        14.704991    
    842000   1.0269458      16.932772      14.546982    
    843000   1.0112384      17.16227       14.605794    
    844000   1.000162       17.204013      14.38564     
    845000   0.95423735     17.480407      14.267926    
    846000   0.99740135     17.182188      14.028513    
    847000   1.016018       17.168226      13.93825     
    848000   1.0185462      17.384151      13.914687    
    849000   1.0083623      17.472067      13.926138    
    850000   1.013628       17.429153      13.889958    
    851000   0.98839572     16.866988      13.903053    
    852000   0.96634873     17.056851      13.841275    
    853000   1.0072342      17.592002      13.757802    
    854000   1.0366178      17.288625      13.640853    
    855000   0.98468393     17.425684      13.436984    
    856000   1.0007943      17.07443       13.38966     
    857000   0.94911035     16.695818      13.340259    
    858000   0.99712411     17.007932      13.251931    
    859000   1.0404161      17.235239      13.316554    
    860000   1.0426321      17.316561      13.478957    
    861000   1.0183062      16.525681      13.449543    
    862000   0.970312       17.240763      13.403811    
    863000   1.0278799      17.058442      13.343615    
    864000   0.97314306     16.990874      13.055386    
    865000   1.0153965      16.413707      12.935932    
    866000   1.0211923      17.796489      12.835514    
    867000   0.97022742     17.291883      12.838445    
    868000   0.99533984     16.632488      12.674373    
    869000   0.98318846     17.550518      12.607574    
    870000   0.96249819     17.120608      12.767836    
    871000   0.99188556     17.658059      12.750555    
    872000   1.0030533      17.594246      12.644353    
    873000   1.0154301      17.58875       12.640412    
    874000   0.97930684     17.058419      12.597898    
    875000   0.98477269     17.058251      12.625777    
    876000   1.0538927      17.49115       12.770251    
    877000   0.99949509     16.909885      12.669048    
    878000   1.0012728      17.007193      12.714058    
    879000   0.97472418     17.571771      12.583404    
    880000   0.9576542      16.370126      12.489347    
    881000   1.003949       17.175859      12.585211    
    882000   1.0519381      17.094805      12.527944    
    883000   0.97687969     17.289732      12.430618    
    884000   1.020582       17.124149      12.344934    
    885000   0.99822921     16.978562      12.189967    
    886000   1.0204406      17.521827      12.068684    
    887000   1.0274181      17.080366      11.988533    
    888000   1.0157655      17.122695      12.054463    
    889000   0.98479489     17.084144      11.728531    
    890000   0.99911917     16.802238      11.765435    
    891000   0.9740324      16.746323      11.794219    
    892000   0.99387436     16.89457       11.747322    
    893000   1.0465567      17.208905      11.654667    
    894000   1.0165075      16.453499      11.777687    
    895000   0.98345191     16.996914      11.669372    
    896000   1.0097649      16.842782      11.602815    
    897000   1.0294122      17.050181      11.529963    
    898000   1.0062684      16.750919      11.748288    
    899000   1.0122206      16.861326      11.714022    
    900000   1.0346838      17.142008      11.729505    
    901000   1.004723       16.867929      11.560248    
    902000   0.98301552     16.832518      11.263153    
    903000   1.018586       17.31052       11.324931    
    904000   1.0101901      17.180671      11.242969    
    905000   1.0338704      16.692267      11.191165    
    906000   1.0345687      17.66743       11.14089     
    907000   0.98000194     16.326101      11.043915    
    908000   1.0244943      16.988184      10.786857    
    909000   1.0202796      16.938316      10.858986    
    910000   1.0157439      17.414605      10.605925    
    911000   1.0244783      17.491443      10.62843     
    912000   0.99897753     17.141535      10.618257    
    913000   1.0063404      17.022251      10.527614    
    914000   0.99626984     16.233024      10.496948    
    915000   0.97836426     17.715407      10.541017    
    916000   1.0091341      16.548921      10.41061     
    917000   1.041109       17.468487      10.172801    
    918000   0.99357507     16.67371       10.097092    
    919000   1.0323854      17.611203      10.107891    
    920000   0.98717228     16.63718       10.00989     
    921000   0.96428137     17.437797      9.8322969    
    922000   1.0458319      17.397548      9.6770231    
    923000   1.0059892      17.209171      9.6079234    
    924000   1.0080766      17.337572      9.5555616    
    925000   0.99344589     16.669254      9.4441352    
    926000   0.99374562     17.100925      9.5340814    
    927000   0.9905242      17.303248      9.441886     
    928000   1.0535207      17.233955      9.3591031    
    929000   1.0489214      17.069855      9.2191319    
    930000   1.0158309      16.934803      9.1512186    
    931000   1.0140357      16.483591      9.0755512    
    932000   0.98328893     16.770384      8.9716902    
    933000   0.99440967     16.960993      8.9281194    
    934000   0.97544297     17.084365      8.9017001    
    935000   0.99710588     16.6971        8.9612078    
    936000   0.99737662     17.061855      8.8814673    
    937000   1.039739       17.2064        8.9133457    
    938000   1.0172717      17.322676      8.9485621    
    939000   0.99410894     17.675954      8.8596076    
    940000   1.0099901      16.985048      8.9105352    
    941000   0.9720886      16.29463       8.7548226    
    942000   1.0195861      17.030363      8.7687003    
    943000   0.98390578     17.272514      8.7915806    
    944000   1.0093057      17.328178      8.7186829    
    945000   0.97945108     17.250858      8.5748264    
    946000   0.99941869     16.812265      8.4165574    
    947000   0.95291422     17.723622      8.3608459    
    948000   1.0048753      17.218232      8.1427093    
    949000   0.99230576     17.336004      7.9046391    
    950000   0.97915137     17.472446      7.6593788    
    951000   0.97255627     16.697538      7.5347928    
    952000   1.0074987      16.653324      7.30175      
    953000   0.98917807     16.620986      7.1996641    
    954000   1.0171986      17.601348      7.1290388    
Fix halt condition for fix-id 3 met on step 955000 with value 6.934915184966695 (src/fix_halt.cpp:237)
    955000   0.99285297     16.954684      6.9349152    
Loop time of 1292.64 on 2 procs for 855000 steps with 1101 atoms

Performance: 571482.543 tau/day, 661.438 timesteps/s
137.7% CPU use with 1 MPI tasks x 2 OpenMP threads

MPI task timing breakdown:
Section |  min time  |  avg time  |  max time  |%varavg| %total
---------------------------------------------------------------
Pair    | 390.12     | 390.12     | 390.12     |   0.0 | 30.18
Bond    | 24.375     | 24.375     | 24.375     |   0.0 |  1.89
Neigh   | 818.17     | 818.17     | 818.17     |   0.0 | 63.29
Comm    | 0.42311    | 0.42311    | 0.42311    |   0.0 |  0.03
Output  | 3.4109     | 3.4109     | 3.4109     |   0.0 |  0.26
Modify  | 52.194     | 52.194     | 52.194     |   0.0 |  4.04
Other   |            | 3.952      |            |       |  0.31

Nlocal:           1101 ave        1101 max        1101 min
Histogram: 1 0 0 0 0 0 0 0 0 0
Nghost:              0 ave           0 max           0 min
Histogram: 1 0 0 0 0 0 0 0 0 0
Neighs:         247905 ave      247905 max      247905 min
Histogram: 1 0 0 0 0 0 0 0 0 0

Total # of neighbors = 247905
Ave neighs/atom = 225.16349
Ave special neighs/atom = 1.9981835
Neighbor list builds = 7393
Dangerous builds = 0

# This simulation is done
# Move onto the next one
clear
  using 2 OpenMP thread(s) per MPI task
package omp 0
using multi-threaded neighbor list subroutines
next f
jump SELF

###
# Reference paper:
# K. Kremer and G. S. Grest
# Dynamics of entangled linear polymer melts: A molecular-dynamics simulation
# J Chem Phys 92, 5057 (1990)

##################################
# MIHIR: for branched polymers
# LJ minimum first to expand and explore, then collapse
###

###
# Looping through the various N3B4 polymers to simulate,
# define variables to switch through
variable f index bb40nuc3bl10bn4d30tot100V2 bb80nuc3bl20bn4d30tot200V2 bb120nuc3bl30bn4d30tot300V2 bb160nuc3bl40bn4d30tot400V2 bb200nuc3bl50bn4d30tot500V2 bb240nuc3bl60bn4d30tot600V2 bb280nuc3bl70bn4d30tot700V2 bb320nuc3bl80bn4d30tot800V2 bb360nuc3bl90bn4d30tot900V2 bb400nuc3bl100bn4d30tot1000V2 bb440nuc3bl110bn4d30tot1100V2 bb480nuc3bl120bn4d30tot1200V2
# variable f index bb40nuc3bl10bn4d30tot100V3 bb80nuc3bl20bn4d30tot200V3 bb120nuc3bl30bn4d30tot300V3 bb160nuc3bl40bn4d30tot400V3 bb200nuc3bl50bn4d30tot500V3 bb240nuc3bl60bn4d30tot600V3 bb280nuc3bl70bn4d30tot700V3 bb320nuc3bl80bn4d30tot800V3 bb360nuc3bl90bn4d30tot900V3 bb400nuc3bl100bn4d30tot1000V3 bb440nuc3bl110bn4d30tot1100V3 bb480nuc3bl120bn4d30tot1200V3
# variable f index bb40nuc3bl10bn4d30tot100 bb80nuc3bl20bn4d30tot200 bb120nuc3bl30bn4d30tot300 bb160nuc3bl40bn4d30tot400 bb200nuc3bl50bn4d30tot500 bb240nuc3bl60bn4d30tot600 bb280nuc3bl70bn4d30tot700 bb320nuc3bl80bn4d30tot800 bb360nuc3bl90bn4d30tot900 bb400nuc3bl100bn4d30tot1000 bb440nuc3bl110bn4d30tot1100 bb480nuc3bl120bn4d30tot1200
###


###
# Box and units  (use LJ units and periodic boundaries)
###

units lj
log N3B4/trial2/logs3/$f.log
log N3B4/trial2/logs3/bb480nuc3bl120bn4d30tot1200V2.log
