#atom_style bond #no stiffness
atom_style angle #with stiffness

boundary        p p p
###
# Pair interactions require lists of neighbours to be calculated
###

#neighbor 0.3 bin
neighbor 4 bin

neigh_modify every 1 delay 1 check yes
atom_modify sort 0 0
### Generate RESTART file, SPECIAL format, not a .txt file ###
### Useful if simulation crashes ###

restart 1000000 N7B4/trial2/restarts2/$f.restart
restart 1000000 N7B4/trial2/restarts2/bb145nuc7bl18bn4d30tot400V2.restart
#############################



### READ "start" data file ###

read_data N7B4/trial2/dats2/$f.dat
read_data N7B4/trial2/dats2/bb145nuc7bl18bn4d30tot400V2.dat
Reading data file ...
  orthogonal box = (-1000 -1000 -1000) to (1000 1000 1000)
  1 by 1 by 1 MPI processor grid
  reading atoms ...
  397 atoms
  scanning bonds ...
  3 = max bonds/atom
  scanning angles ...
  6 = max angles/atom
  reading bonds ...
  396 bonds
  reading angles ...
  416 angles
Finding 1-2 1-3 1-4 neighbors ...
  special bond factors lj:    0        0        0       
  special bond factors coul:  0        0        0       
     4 = max # of 1-2 neighbors
     4 = max # of 1-3 neighbors
     8 = max # of 1-4 neighbors
    12 = max # of special neighbors
  special bonds CPU = 0.001 seconds
  read_data CPU = 0.074 seconds

######################

### READ "REstart" data file ###

######################



###
# Define groups (atom type 1 is group 'all')
###
group all type 1
397 atoms in group all


###
# Dump configs - "simple dumpings"
###

###
# Dump configs + box coords
###

dump   1   all   custom   1000  N7B4/trial2/trjs2/$f.lammpstrj  id  x y z  ix iy iz
dump   1   all   custom   1000  N7B4/trial2/trjs2/bb145nuc7bl18bn4d30tot400V2.lammpstrj  id  x y z  ix iy iz
dump_modify   1   format line "%d %.5f %.5f %.5f %d %d %d"

########################################################################


###################################################################
# Stiffness term
#
# E = K * (1+cos(theta)), K>0
#
angle_style   cosine
#change this coefficient to change stiffness (e.g. 1,5,10)
angle_coeff   1 1.0
###################################################################

###################################################################
# Pair interaction between non-bonded atoms
#
#  Lennard-Jones 12-6 potential with cutoff:
#  potential E=4epsilon[ (sigma/r)^12 - (sigma/r)^6]  for r<r_cut
#
#  1.12246 = 2^(1/6) is the minimum of the potential


pair_style      lj/cut 1.12246152962189
#pair_style      lj/cut 3

#
#  pair_modify shift yes adds a constant to the potential such

#  that E(r_cut)=0. Forces remains unchanged.
#

pair_modify     shift yes

#
#  pair_coeff for lj/cut, specify 4:
#    * atom type interacting with
#    * atom type
#    * epsilon (energy units)
#    * sigma (distance units)
#

pair_coeff      1 1 1.0 1.0
###################################################################

###################################################################
# Pair interaction between non-bonded atoms
#
#  soft potential, for PUSHING apart overlapping atoms
#  potential E=A*(1 + cos(pi*r/r_c))
#
#  1.12246 = 2^(1/6) is the cut-off r_c

#pair_style     soft 1.12246152962189

#
#  pair_coeff for soft, specify 3:
#    * atom type interacting with
#    * atom type
#    * A
#
#

#pair_coeff      1 1 100.0
###################################################################

###################################################################
# Pair interaction between bonded atoms
#
# Fene potential + Lennard Jones 12-6:

#
#  E= - 0.5 K R0^2 ln[ 1- (r/R0)^2]
#     + 4epsilon[ (sigma/r)^12 - (sigma/r)^6] + epsilon
#

bond_style   fene


#
# For style fene, specify:
#   * bond type
#   * K (energy/distance^2)
#   * R0 (distance)
#   * epsilon (energy)  (LJ component)
#   * sigma (distance)  (LJ component)
#


special_bonds fene #<=== I M P O R T A N T (new command)
Finding 1-2 1-3 1-4 neighbors ...
  special bond factors lj:    0        1        1       
  special bond factors coul:  0        1        1       
     4 = max # of 1-2 neighbors
    12 = max # of special neighbors
  special bonds CPU = 0.001 seconds

bond_coeff   1   30   2   1.0   1.0


###################################################

###################################################################
# Pair interaction between bonded atoms
#
# Harmonic potential:
#
#  E= K * (R-R0)^2
#

#bond_style   harmonic

#
# For style harmonic, specify:
#   * bond type
#   * K (energy/distance^2)
#   * R0 (distance)
#

#bond_coeff   1   60.0   1.0
#bond_coeff   2   harmonic 0.1   1.0

###################################################
compute 1 all gyration
variable rog equal c_1
#compute 2 all coord/atom cutoff 1.1

#dump 2 all custom 10000 contact_number.dump id c_2


###
# Set up fixes
###
thermo_style   custom   step  temp enthalpy c_1
fix 1 all nve   ###NVE ensemble

fix 2 all   langevin   1.0 1.0 1.0  778655   ###Langevin integrator Tstart Tstop 1/friction rndseed


##### Sample thermodynamic info  (temperature, energy, pressure, etc.) #####
thermo 1000









############################################################################

###
# set timestep of integrator

timestep 0.01

###
# run integration for a number of steps
###
#run 0
#variable r equal c_1
#if "$r < 63.1" then "quit 1"

# lj potential minimum, cause molecule to explore
run 100000
Generated 0 of 0 mixed pair_coeff terms from geometric mixing rule
Last active /omp style is angle_style cosine/omp
Neighbor list info ...
  update: every = 1 steps, delay = 1 steps, check = yes
  max neighbors/atom: 2000, page size: 100000
  master list distance cutoff = 5.1224615
  ghost atom cutoff = 5.1224615
  binsize = 2.5612308, bins = 781 781 781
  1 neighbor lists, perpetual/occasional/extra = 1 0 0
  (1) pair lj/cut/omp, perpetual
      attributes: half, newton on, omp
      pair build: half/bin/newton/omp
      stencil: half/bin/3d
      bin: standard
WARNING: Communication cutoff 5.12246152962189 is shorter than a bond length based estimate of 5.455. This may lead to errors. (src/comm.cpp:723)
Per MPI rank memory allocation (min/avg/max) = 1861 | 1861 | 1861 Mbytes
   Step          Temp         Enthalpy         c_1      
         0   0              13.271756      29.112819    
      1000   1.025061       19.882131      28.304929    
      2000   1.0714311      21.173893      27.821706    
      3000   0.93928522     20.112731      27.789259    
      4000   1.0147084      20.350616      27.425409    
      5000   0.95543488     19.87225       26.892291    
      6000   1.0124172      19.585373      26.547184    
      7000   0.95209776     19.974665      26.382234    
      8000   0.98428535     20.138925      25.887761    
      9000   1.0275415      20.029564      25.476867    
     10000   1.0029281      20.553875      24.994891    
     11000   1.0698993      19.737005      24.968164    
     12000   1.0718395      19.990979      24.687281    
     13000   1.0007532      20.216837      24.325671    
     14000   1.0003818      20.87817       24.097731    
     15000   1.0258027      20.800213      24.169006    
     16000   1.0521845      20.653238      24.151193    
     17000   1.0386183      20.509471      24.359099    
     18000   1.0415329      20.96238       24.268528    
     19000   1.0166341      20.260639      24.089946    
     20000   1.0462775      21.236685      24.105696    
     21000   0.98666288     20.543768      23.82847     
     22000   0.98377736     20.014256      23.682367    
     23000   1.0055961      20.922203      23.876068    
     24000   0.97753815     20.289334      24.171716    
     25000   1.0110509      20.155639      24.137612    
     26000   1.0374075      20.627672      24.132391    
     27000   0.98440837     20.527864      23.983974    
     28000   0.98824581     20.470367      23.905052    
     29000   1.0067945      20.589137      24.365869    
     30000   0.97015373     20.388084      24.287804    
     31000   1.0889486      21.168957      24.143991    
     32000   1.0292969      21.646543      24.37557     
     33000   1.0084488      20.000955      24.488679    
     34000   1.0238324      21.278315      24.376555    
     35000   0.98325317     20.751733      24.100098    
     36000   0.9716084      20.276804      23.711015    
     37000   1.0837547      20.54898       23.810466    
     38000   1.0610638      20.873779      24.156561    
     39000   0.9849059      21.048696      24.320144    
     40000   1.0479341      21.075084      24.142763    
     41000   0.96527251     20.340929      23.918532    
     42000   1.0279677      20.585175      23.527548    
     43000   1.0459855      20.688291      23.478822    
     44000   1.0413944      20.549112      23.285762    
     45000   1.0047779      20.734676      23.317131    
     46000   0.94834425     20.78013       23.145918    
     47000   1.0291196      20.825086      23.179992    
     48000   0.96593858     20.066931      23.254174    
     49000   1.0269839      20.724997      23.160632    
     50000   1.086699       20.411649      23.358747    
     51000   1.0381783      21.580815      23.554882    
     52000   0.92992249     20.71095       23.104387    
     53000   1.0244523      21.28884       22.859079    
     54000   1.0591418      21.160386      22.957576    
     55000   1.0210724      20.42632       22.861059    
     56000   1.0554168      20.389222      22.874028    
     57000   0.99440617     19.816198      22.843413    
     58000   0.9818514      20.459653      22.344891    
     59000   0.97488075     20.959899      22.223223    
     60000   0.99926608     21.488588      22.132317    
     61000   0.95925178     21.140565      22.114423    
     62000   1.0241105      21.119422      21.744788    
     63000   1.0624344      20.336084      21.407645    
     64000   1.0526764      21.285098      21.387391    
     65000   1.0406364      20.581814      21.292806    
     66000   0.99734013     20.640055      20.882118    
     67000   0.99320749     20.509326      20.654942    
     68000   0.99201845     19.871116      20.680289    
     69000   0.97670402     20.315771      20.320043    
     70000   1.0086704      19.432161      20.168388    
     71000   0.9537364      20.048763      19.773426    
     72000   0.98859579     20.024364      19.85215     
     73000   0.99241473     20.521519      19.912606    
     74000   0.9918868      20.8818        19.750826    
     75000   1.0332692      20.671572      19.530687    
     76000   1.0597531      20.417579      19.590152    
     77000   0.98108666     20.546746      19.505753    
     78000   1.0001518      20.088197      19.530282    
     79000   0.91903517     20.908874      19.219562    
     80000   1.0097461      20.07472       19.056451    
     81000   1.0196433      21.052946      18.828057    
     82000   1.0044421      21.203629      18.701383    
     83000   0.98134676     20.55975       19.044079    
     84000   0.98157571     21.624395      18.705292    
     85000   0.92883821     20.511297      18.714164    
     86000   1.0063912      21.095313      18.849026    
     87000   1.0156924      20.396643      18.687069    
     88000   0.95277356     19.848219      18.38007     
     89000   0.97963986     20.393197      18.269331    
     90000   0.95668851     20.495088      18.126448    
     91000   0.96005553     21.190356      18.201021    
     92000   1.0040316      20.852714      18.365324    
     93000   1.0339723      20.448058      18.433957    
     94000   0.95349144     20.927265      18.452391    
     95000   1.0422885      21.037166      18.143753    
     96000   1.0434051      20.697563      18.427656    
     97000   0.97640929     20.12428       18.086961    
     98000   0.99189189     19.89513       18.137804    
     99000   1.0234007      20.27404       18.108765    
    100000   0.993647       19.969605      17.941976    
Loop time of 278.008 on 2 procs for 100000 steps with 397 atoms

Performance: 310782.195 tau/day, 359.702 timesteps/s
102.2% CPU use with 1 MPI tasks x 2 OpenMP threads

MPI task timing breakdown:
Section |  min time  |  avg time  |  max time  |%varavg| %total
---------------------------------------------------------------
Pair    | 0.92058    | 0.92058    | 0.92058    |   0.0 |  0.33
Bond    | 1.1263     | 1.1263     | 1.1263     |   0.0 |  0.41
Neigh   | 273.33     | 273.33     | 273.33     |   0.0 | 98.32
Comm    | 0.022413   | 0.022413   | 0.022413   |   0.0 |  0.01
Output  | 0.23085    | 0.23085    | 0.23085    |   0.0 |  0.08
Modify  | 2.234      | 2.234      | 2.234      |   0.0 |  0.80
Other   |            | 0.1471     |            |       |  0.05

Nlocal:            397 ave         397 max         397 min
Histogram: 1 0 0 0 0 0 0 0 0 0
Nghost:              0 ave           0 max           0 min
Histogram: 1 0 0 0 0 0 0 0 0 0
Neighs:           4893 ave        4893 max        4893 min
Histogram: 1 0 0 0 0 0 0 0 0 0

Total # of neighbors = 4893
Ave neighs/atom = 12.324937
Ave special neighs/atom = 1.9949622
Neighbor list builds = 1123
Dangerous builds = 0

# Replace lj potential, now collapse
pair_style      lj/cut 3

# Cutoff simul when gyration under 7
# Variable created with equal requires v_ + 'name'
fix 3 all halt 1000 v_rog < 7

run 3000000
Generated 0 of 0 mixed pair_coeff terms from geometric mixing rule
Last active /omp style is angle_style cosine/omp
Per MPI rank memory allocation (min/avg/max) = 1861 | 1861 | 1861 Mbytes
   Step          Temp         Enthalpy         c_1      
    100000   0.993647       18.904668      17.941976    
    101000   0.98655957     19.106998      17.347421    
    102000   0.93926563     19.329685      17.032604    
    103000   0.97475965     18.98446       16.433566    
    104000   0.95822664     17.984519      16.546925    
    105000   1.0112764      18.585661      15.96892     
    106000   0.98380124     18.606154      16.215694    
    107000   1.0504351      18.057312      16.078835    
    108000   0.97214025     17.897086      16.030136    
    109000   0.95023337     18.288616      16.017511    
    110000   1.0221686      18.226475      15.951334    
    111000   0.9963319      18.380329      15.67049     
    112000   0.99203158     17.339145      15.447662    
    113000   1.0167216      19.078122      15.145932    
    114000   1.0143587      18.055985      14.594263    
    115000   1.0595292      17.721261      14.15227     
    116000   1.0251692      17.735883      13.989105    
    117000   1.0386715      18.361358      14.151731    
    118000   0.92632445     17.314332      14.268101    
    119000   0.98196342     18.668331      13.890801    
    120000   1.0052494      17.854495      14.093003    
    121000   1.046961       18.510199      13.550512    
    122000   1.0017985      18.645099      13.421548    
    123000   0.97635352     18.24907       13.643626    
    124000   0.98461381     18.36451       13.376423    
    125000   0.98994888     18.200566      13.486841    
    126000   1.0684236      18.293454      13.379274    
    127000   1.030973       17.977471      13.186402    
    128000   1.0365107      17.069119      12.915681    
    129000   0.92885062     16.971395      12.867297    
    130000   0.95837569     17.931946      12.676496    
    131000   0.95455567     16.877789      12.545031    
    132000   1.0151314      17.357659      12.355305    
    133000   1.0590412      17.582396      12.193597    
    134000   1.0129276      17.939733      12.014529    
    135000   0.98143394     18.00305       11.723073    
    136000   0.99992103     18.214342      11.619501    
    137000   1.0313507      17.954204      11.244259    
    138000   0.96634179     16.671682      11.024445    
    139000   0.97447212     17.806185      10.846698    
    140000   1.0450969      18.160718      10.49438     
    141000   1.0284028      18.154763      10.228387    
    142000   1.0259702      17.37833       10.123303    
    143000   1.001296       18.02411       9.9168678    
    144000   1.0037483      17.713353      9.7680481    
    145000   0.98565541     17.570928      9.4360561    
    146000   0.99769712     17.921334      8.8620481    
    147000   1.0049698      18.035652      8.8326374    
    148000   1.1043907      17.908865      8.62682      
    149000   0.99428295     18.772722      8.3656524    
    150000   0.99600968     16.889355      7.8538305    
    151000   0.95472077     17.491983      7.6965803    
    152000   0.94822393     17.473948      7.0329471    
Fix halt condition for fix-id 3 met on step 153000 with value 6.8976789295644965 (src/fix_halt.cpp:237)
    153000   1.0776282      18.128713      6.8976789    
Loop time of 48.1507 on 2 procs for 53000 steps with 397 atoms

Performance: 951013.266 tau/day, 1100.710 timesteps/s
116.4% CPU use with 1 MPI tasks x 2 OpenMP threads

MPI task timing breakdown:
Section |  min time  |  avg time  |  max time  |%varavg| %total
---------------------------------------------------------------
Pair    | 5.2201     | 5.2201     | 5.2201     |   0.0 | 10.84
Bond    | 0.64048    | 0.64048    | 0.64048    |   0.0 |  1.33
Neigh   | 40.786     | 40.786     | 40.786     |   0.0 | 84.70
Comm    | 0.011873   | 0.011873   | 0.011873   |   0.0 |  0.02
Output  | 0.1322     | 0.1322     | 0.1322     |   0.0 |  0.27
Modify  | 1.2743     | 1.2743     | 1.2743     |   0.0 |  2.65
Other   |            | 0.08577    |            |       |  0.18

Nlocal:            397 ave         397 max         397 min
Histogram: 1 0 0 0 0 0 0 0 0 0
Nghost:              0 ave           0 max           0 min
Histogram: 1 0 0 0 0 0 0 0 0 0
Neighs:          40890 ave       40890 max       40890 min
Histogram: 1 0 0 0 0 0 0 0 0 0

Total # of neighbors = 40890
Ave neighs/atom = 102.99748
Ave special neighs/atom = 1.9949622
Neighbor list builds = 419
Dangerous builds = 0

# This simulation is done
# Move onto the next one
clear
  using 2 OpenMP thread(s) per MPI task
package omp 0
using multi-threaded neighbor list subroutines
next f
jump SELF

###
# Reference paper:
# K. Kremer and G. S. Grest
# Dynamics of entangled linear polymer melts: A molecular-dynamics simulation
# J Chem Phys 92, 5057 (1990)

##################################
# MIHIR: for branched polymers
# LJ minimum first to expand and explore, then collapse
###

###
# Looping through the various N7B4 polymers to simulate,
# define variables to switch through
variable f index bb36nuc7bl4bn4d30tot100V2 bb72nuc7bl9bn4d30tot200V2 bb109nuc7bl13bn4d30tot300V2 bb145nuc7bl18bn4d30tot400V2 bb181nuc7bl22bn4d30tot500V2 bb218nuc7bl27bn4d30tot600V2 bb254nuc7bl31bn4d30tot700V2 bb290nuc7bl36bn4d30tot800V2 bb327nuc7bl40bn4d30tot900V2 bb363nuc7bl45bn4d30tot1000V2 bb400nuc7bl50bn4d30tot1100V2 bb436nuc7bl54bn4d30tot1200V2
# variable f index bb36nuc7bl4bn4d30tot100V3 bb72nuc7bl9bn4d30tot200V3 bb109nuc7bl13bn4d30tot300V3 bb145nuc7bl18bn4d30tot400V3 bb181nuc7bl22bn4d30tot500V3 bb218nuc7bl27bn4d30tot600V3 bb254nuc7bl31bn4d30tot700V3 bb290nuc7bl36bn4d30tot800V3 bb327nuc7bl40bn4d30tot900V3 bb363nuc7bl45bn4d30tot1000V3 bb400nuc7bl50bn4d30tot1100V3 bb436nuc7bl54bn4d30tot1200V3
# variable f index bb36nuc7bl4bn4d30tot100 bb72nuc7bl9bn4d30tot200 bb109nuc7bl13bn4d30tot300 bb145nuc7bl18bn4d30tot400 bb181nuc7bl22bn4d30tot500 bb218nuc7bl27bn4d30tot600 bb254nuc7bl31bn4d30tot700 bb290nuc7bl36bn4d30tot800 bb327nuc7bl40bn4d30tot900 bb363nuc7bl45bn4d30tot1000 bb400nuc7bl50bn4d30tot1100 bb436nuc7bl54bn4d30tot1200
###


###
# Box and units  (use LJ units and periodic boundaries)
###

units lj
log N7B4/trial2/logs2/$f.log
log N7B4/trial2/logs2/bb181nuc7bl22bn4d30tot500V2.log
