#atom_style bond #no stiffness
atom_style angle #with stiffness

boundary        p p p
###
# Pair interactions require lists of neighbours to be calculated
###

#neighbor 0.3 bin
neighbor 4 bin

neigh_modify every 1 delay 1 check yes
atom_modify sort 0 0
### Generate RESTART file, SPECIAL format, not a .txt file ###
### Useful if simulation crashes ###

restart 1000000 N7B4/trial2/restarts2/$f.restart
restart 1000000 N7B4/trial2/restarts2/bb327nuc7bl40bn4d30tot900V2.restart
#############################



### READ "start" data file ###

read_data N7B4/trial2/dats2/$f.dat
read_data N7B4/trial2/dats2/bb327nuc7bl40bn4d30tot900V2.dat
Reading data file ...
  orthogonal box = (-1000 -1000 -1000) to (1000 1000 1000)
  1 by 1 by 1 MPI processor grid
  reading atoms ...
  887 atoms
  scanning bonds ...
  3 = max bonds/atom
  scanning angles ...
  6 = max angles/atom
  reading bonds ...
  886 bonds
  reading angles ...
  906 angles
Finding 1-2 1-3 1-4 neighbors ...
  special bond factors lj:    0        0        0       
  special bond factors coul:  0        0        0       
     4 = max # of 1-2 neighbors
     4 = max # of 1-3 neighbors
     8 = max # of 1-4 neighbors
    12 = max # of special neighbors
  special bonds CPU = 0.002 seconds
  read_data CPU = 0.225 seconds

######################

### READ "REstart" data file ###

######################



###
# Define groups (atom type 1 is group 'all')
###
group all type 1
887 atoms in group all


###
# Dump configs - "simple dumpings"
###

###
# Dump configs + box coords
###

dump   1   all   custom   1000  N7B4/trial2/trjs2/$f.lammpstrj  id  x y z  ix iy iz
dump   1   all   custom   1000  N7B4/trial2/trjs2/bb327nuc7bl40bn4d30tot900V2.lammpstrj  id  x y z  ix iy iz
dump_modify   1   format line "%d %.5f %.5f %.5f %d %d %d"

########################################################################


###################################################################
# Stiffness term
#
# E = K * (1+cos(theta)), K>0
#
angle_style   cosine
#change this coefficient to change stiffness (e.g. 1,5,10)
angle_coeff   1 1.0
###################################################################

###################################################################
# Pair interaction between non-bonded atoms
#
#  Lennard-Jones 12-6 potential with cutoff:
#  potential E=4epsilon[ (sigma/r)^12 - (sigma/r)^6]  for r<r_cut
#
#  1.12246 = 2^(1/6) is the minimum of the potential


pair_style      lj/cut 1.12246152962189
#pair_style      lj/cut 3

#
#  pair_modify shift yes adds a constant to the potential such

#  that E(r_cut)=0. Forces remains unchanged.
#

pair_modify     shift yes

#
#  pair_coeff for lj/cut, specify 4:
#    * atom type interacting with
#    * atom type
#    * epsilon (energy units)
#    * sigma (distance units)
#

pair_coeff      1 1 1.0 1.0
###################################################################

###################################################################
# Pair interaction between non-bonded atoms
#
#  soft potential, for PUSHING apart overlapping atoms
#  potential E=A*(1 + cos(pi*r/r_c))
#
#  1.12246 = 2^(1/6) is the cut-off r_c

#pair_style     soft 1.12246152962189

#
#  pair_coeff for soft, specify 3:
#    * atom type interacting with
#    * atom type
#    * A
#
#

#pair_coeff      1 1 100.0
###################################################################

###################################################################
# Pair interaction between bonded atoms
#
# Fene potential + Lennard Jones 12-6:

#
#  E= - 0.5 K R0^2 ln[ 1- (r/R0)^2]
#     + 4epsilon[ (sigma/r)^12 - (sigma/r)^6] + epsilon
#

bond_style   fene


#
# For style fene, specify:
#   * bond type
#   * K (energy/distance^2)
#   * R0 (distance)
#   * epsilon (energy)  (LJ component)
#   * sigma (distance)  (LJ component)
#


special_bonds fene #<=== I M P O R T A N T (new command)
Finding 1-2 1-3 1-4 neighbors ...
  special bond factors lj:    0        1        1       
  special bond factors coul:  0        1        1       
     4 = max # of 1-2 neighbors
    12 = max # of special neighbors
  special bonds CPU = 0.001 seconds

bond_coeff   1   30   2   1.0   1.0


###################################################

###################################################################
# Pair interaction between bonded atoms
#
# Harmonic potential:
#
#  E= K * (R-R0)^2
#

#bond_style   harmonic

#
# For style harmonic, specify:
#   * bond type
#   * K (energy/distance^2)
#   * R0 (distance)
#

#bond_coeff   1   60.0   1.0
#bond_coeff   2   harmonic 0.1   1.0

###################################################
compute 1 all gyration
variable rog equal c_1
#compute 2 all coord/atom cutoff 1.1

#dump 2 all custom 10000 contact_number.dump id c_2


###
# Set up fixes
###
thermo_style   custom   step  temp enthalpy c_1
fix 1 all nve   ###NVE ensemble

fix 2 all   langevin   1.0 1.0 1.0  778655   ###Langevin integrator Tstart Tstop 1/friction rndseed


##### Sample thermodynamic info  (temperature, energy, pressure, etc.) #####
thermo 1000









############################################################################

###
# set timestep of integrator

timestep 0.01

###
# run integration for a number of steps
###
#run 0
#variable r equal c_1
#if "$r < 63.1" then "quit 1"

# lj potential minimum, cause molecule to explore
run 100000
Generated 0 of 0 mixed pair_coeff terms from geometric mixing rule
Last active /omp style is angle_style cosine/omp
Neighbor list info ...
  update: every = 1 steps, delay = 1 steps, check = yes
  max neighbors/atom: 2000, page size: 100000
  master list distance cutoff = 5.1224615
  ghost atom cutoff = 5.1224615
  binsize = 2.5612308, bins = 781 781 781
  1 neighbor lists, perpetual/occasional/extra = 1 0 0
  (1) pair lj/cut/omp, perpetual
      attributes: half, newton on, omp
      pair build: half/bin/newton/omp
      stencil: half/bin/3d
      bin: standard
WARNING: Communication cutoff 5.12246152962189 is shorter than a bond length based estimate of 5.455. This may lead to errors. (src/comm.cpp:723)
Per MPI rank memory allocation (min/avg/max) = 1862 | 1862 | 1862 Mbytes
   Step          Temp         Enthalpy         c_1      
         0   0              13.259832      61.026594    
      1000   1.0299849      19.387319      60.12015     
      2000   1.0185145      19.07641       59.652372    
      3000   1.016518       19.97003       58.994862    
      4000   1.0573263      19.712843      58.872738    
      5000   0.99480394     20.063686      58.481757    
      6000   1.0000205      20.099785      58.438544    
      7000   1.00347        20.038151      58.052157    
      8000   0.9648286      20.17444       57.661116    
      9000   1.0378006      20.463236      57.453733    
     10000   0.97909838     20.424908      57.323417    
     11000   0.99799633     19.752862      57.209939    
     12000   0.98584262     19.964024      57.03252     
     13000   1.0798915      20.567249      56.916058    
     14000   1.0412473      20.676045      56.594051    
     15000   0.98587281     20.207097      56.396185    
     16000   1.0205499      20.478476      56.334366    
     17000   1.0014005      20.469497      56.235781    
     18000   1.0362913      21.220907      56.085403    
     19000   0.97140004     20.056809      55.852509    
     20000   0.98114471     20.382392      55.828684    
     21000   0.979921       20.440782      55.623252    
     22000   0.99598135     20.485874      55.580142    
     23000   0.98932339     20.143904      55.267578    
     24000   1.015614       20.806873      55.024159    
     25000   1.0383173      19.661115      55.002428    
     26000   1.0150419      20.269592      54.927294    
     27000   0.9522072      19.937596      54.757883    
     28000   0.99529153     20.329435      54.52386     
     29000   0.9818574      20.418384      54.470201    
     30000   0.99160396     19.833485      54.366956    
     31000   0.98777605     19.645612      54.316704    
     32000   0.98776832     20.047151      54.402187    
     33000   0.97796212     20.642308      54.468528    
     34000   0.98085413     20.302236      54.258371    
     35000   0.95611969     20.392949      53.757747    
     36000   0.98541098     20.300144      53.517999    
     37000   1.0223801      20.455518      53.362798    
     38000   1.0005152      20.374886      53.239573    
     39000   1.0054569      20.209028      53.151177    
     40000   0.98872514     20.801746      52.948229    
     41000   1.0007137      20.568361      52.86724     
     42000   0.95770296     20.786107      52.654749    
     43000   0.99901867     20.689082      52.542362    
     44000   0.96657048     20.725466      52.800294    
     45000   1.0277237      20.283448      52.838452    
     46000   0.98629888     20.729378      52.865044    
     47000   1.0338188      20.831078      52.781524    
     48000   0.98886575     20.870468      52.734745    
     49000   1.035042       20.41423       52.759619    
     50000   1.0549242      20.729765      52.920954    
     51000   1.0357798      20.051458      52.645566    
     52000   1.0118672      20.553831      52.488396    
     53000   1.0189888      20.208614      52.492393    
     54000   0.98935868     20.274311      52.407733    
     55000   1.0258054      20.672523      52.161664    
     56000   0.95892124     20.605         52.105961    
     57000   1.0782234      20.648123      52.019099    
     58000   1.0199052      19.916619      52.034645    
     59000   1.0336092      20.895799      51.956792    
     60000   0.98439267     20.370707      51.819999    
     61000   0.99541901     20.544982      51.554961    
     62000   0.98087699     20.106018      51.572911    
     63000   1.0597277      21.033371      51.700584    
     64000   1.0405662      20.240006      51.856028    
     65000   1.017592       20.764331      51.90484     
     66000   1.0029189      20.43155       51.998887    
     67000   1.0276577      20.540887      52.136219    
     68000   0.99091726     20.313321      52.231408    
     69000   0.97535342     20.727136      52.100891    
     70000   1.0140531      20.894716      52.123176    
     71000   0.99855087     20.230918      52.295114    
     72000   1.038217       20.30996       52.267537    
     73000   0.95395965     20.673274      52.327478    
     74000   0.94208241     20.355768      52.483342    
     75000   1.019931       20.665961      52.481526    
     76000   0.96959367     20.611896      52.329257    
     77000   0.99993382     20.772316      52.139164    
     78000   0.96268181     19.75177       52.157807    
     79000   0.99505759     21.33492       52.058308    
     80000   1.0104865      20.984163      51.835046    
     81000   0.99741482     20.810705      51.937102    
     82000   1.0225063      20.575679      51.949956    
     83000   0.98490623     20.124141      51.902645    
     84000   1.0078933      20.258378      51.739108    
     85000   1.0093133      20.733559      51.912799    
     86000   1.0262892      20.15946       51.74221     
     87000   0.9809967      20.529475      51.789738    
     88000   0.99897744     20.336872      51.556864    
     89000   1.0263734      20.568527      51.353431    
     90000   0.97241968     20.374024      51.208401    
     91000   0.98071359     20.437714      51.348084    
     92000   1.0518674      20.831833      51.480385    
     93000   1.0059694      20.569999      51.472561    
     94000   0.96914688     19.938533      51.397363    
     95000   0.99056653     20.924877      51.39534     
     96000   0.98723964     20.52925       51.172357    
     97000   1.0359931      20.44165       51.336466    
     98000   1.0326394      20.480794      51.376589    
     99000   1.0265489      20.410179      51.345255    
    100000   0.95594783     20.504501      51.08108     
Loop time of 318.115 on 2 procs for 100000 steps with 887 atoms

Performance: 271600.061 tau/day, 314.352 timesteps/s
103.8% CPU use with 1 MPI tasks x 2 OpenMP threads

MPI task timing breakdown:
Section |  min time  |  avg time  |  max time  |%varavg| %total
---------------------------------------------------------------
Pair    | 1.8005     | 1.8005     | 1.8005     |   0.0 |  0.57
Bond    | 2.4412     | 2.4412     | 2.4412     |   0.0 |  0.77
Neigh   | 307.9      | 307.9      | 307.9      |   0.0 | 96.79
Comm    | 0.038499   | 0.038499   | 0.038499   |   0.0 |  0.01
Output  | 0.36219    | 0.36219    | 0.36219    |   0.0 |  0.11
Modify  | 5.2331     | 5.2331     | 5.2331     |   0.0 |  1.65
Other   |            | 0.3395     |            |       |  0.11

Nlocal:            887 ave         887 max         887 min
Histogram: 1 0 0 0 0 0 0 0 0 0
Nghost:              0 ave           0 max           0 min
Histogram: 1 0 0 0 0 0 0 0 0 0
Neighs:          10274 ave       10274 max       10274 min
Histogram: 1 0 0 0 0 0 0 0 0 0

Total # of neighbors = 10274
Ave neighs/atom = 11.582864
Ave special neighs/atom = 1.9977452
Neighbor list builds = 1199
Dangerous builds = 0

# Replace lj potential, now collapse
pair_style      lj/cut 3

# Cutoff simul when gyration under 7
# Variable created with equal requires v_ + 'name'
fix 3 all halt 1000 v_rog < 7

run 3000000
Generated 0 of 0 mixed pair_coeff terms from geometric mixing rule
Last active /omp style is angle_style cosine/omp
Per MPI rank memory allocation (min/avg/max) = 1862 | 1862 | 1862 Mbytes
   Step          Temp         Enthalpy         c_1      
    100000   0.95594783     19.437515      51.08108     
    101000   0.97628287     19.094343      50.872956    
    102000   1.0194883      19.266659      50.353454    
    103000   1.0481464      18.971416      50.015659    
    104000   1.041551       18.441217      50.081288    
    105000   1.021041       18.496326      50.130624    
    106000   0.98723681     19.025266      50.195651    
    107000   0.95083757     17.937343      50.173787    
    108000   1.0324318      18.233215      49.997068    
    109000   0.98944126     18.312903      49.887977    
    110000   1.019013       18.5348        49.967151    
    111000   1.0093395      17.879971      49.843748    
    112000   1.0110965      17.99604       49.425796    
    113000   0.96557174     18.192239      49.455148    
    114000   0.97689257     17.663841      49.124813    
    115000   1.025819       17.835811      48.935614    
    116000   0.98305083     18.13711       48.609956    
    117000   1.0094988      17.787452      48.70834     
    118000   1.0235931      18.495726      48.749023    
    119000   0.97525449     18.787993      48.70778     
    120000   1.039926       18.714188      48.601491    
    121000   0.99442864     18.010354      48.437551    
    122000   0.94465295     18.00925       48.07525     
    123000   1.0010748      17.844274      47.85889     
    124000   1.0284114      18.134802      47.654778    
    125000   0.97717382     18.641854      47.590248    
    126000   0.97611591     18.189142      47.482323    
    127000   1.0301682      18.096014      47.4586      
    128000   1.0774813      17.828516      47.671387    
    129000   0.97862229     18.414176      47.727243    
    130000   0.97852718     17.988804      47.497742    
    131000   0.94520736     18.315305      47.437252    
    132000   0.94971207     18.288958      47.344042    
    133000   0.98829298     18.390749      47.331489    
    134000   0.98511508     18.287075      47.115789    
    135000   1.010653       18.815887      47.119609    
    136000   0.98315062     17.52814       47.166624    
    137000   1.0262093      18.368911      47.012326    
    138000   1.0203393      17.908234      46.89418     
    139000   0.97342389     18.320181      46.873147    
    140000   1.0029883      17.761515      46.644253    
    141000   1.0238484      18.386715      46.609807    
    142000   0.98886553     18.472835      46.813811    
    143000   0.98127444     18.170203      46.637988    
    144000   0.95555509     18.135049      46.559735    
    145000   1.041854       19.065748      46.599048    
    146000   0.99957397     18.264176      46.326581    
    147000   1.0085153      18.506804      45.772409    
    148000   1.0025132      17.709346      45.703992    
    149000   0.99715603     17.771137      45.669004    
    150000   1.069808       18.626296      45.638293    
    151000   1.012501       18.247039      45.496387    
    152000   0.95400887     17.766537      45.409609    
    153000   0.96631507     17.467607      45.292778    
    154000   1.0360117      17.96168       45.439707    
    155000   1.0224485      18.598564      45.278247    
    156000   1.0076155      18.060811      45.075581    
    157000   1.0362067      18.344891      44.935666    
    158000   1.0001678      17.823762      44.738383    
    159000   1.0014905      17.307247      44.504014    
    160000   1.0546122      18.21821       44.273737    
    161000   0.99187829     18.11192       43.996631    
    162000   0.95547712     17.69142       44.104027    
    163000   0.98261406     18.254013      43.921244    
    164000   0.98395328     17.523462      43.536431    
    165000   0.98518251     17.918869      43.425219    
    166000   0.99529781     18.090512      43.166562    
    167000   0.97867972     17.861408      42.978574    
    168000   0.99487164     18.055104      43.06978     
    169000   1.0015597      18.145836      43.197004    
    170000   0.98461827     17.916914      43.158982    
    171000   1.0177619      18.780087      43.164749    
    172000   0.98424913     18.291479      43.136503    
    173000   0.96179518     18.347549      43.024909    
    174000   0.97191043     17.71073       42.84397     
    175000   1.0167963      18.298327      42.699681    
    176000   1.024712       17.306971      42.671433    
    177000   1.0067779      17.53158       42.475866    
    178000   1.0211691      18.005497      42.236274    
    179000   0.98977504     18.13465       42.173541    
    180000   0.95293367     17.618928      42.032823    
    181000   1.0082029      18.46723       42.070635    
    182000   1.0423771      18.252766      41.807532    
    183000   0.99432004     17.520846      41.707337    
    184000   0.99256799     18.327586      41.624842    
    185000   1.0319331      17.53891       41.669936    
    186000   0.98778691     18.273867      41.798737    
    187000   1.0168476      17.84607       41.619511    
    188000   1.0542001      18.241802      41.507695    
    189000   1.0195439      18.139945      41.784043    
    190000   0.96320371     17.506573      41.631332    
    191000   0.98274442     17.834968      41.619915    
    192000   1.0193326      18.430257      41.644173    
    193000   0.94932772     18.16826       41.69202     
    194000   1.0257956      17.297859      41.666572    
    195000   1.019236       17.290975      41.750848    
    196000   1.0019572      17.20982       41.556118    
    197000   0.96927413     17.823682      41.489957    
    198000   1.0281159      18.411115      41.031796    
    199000   1.0122417      17.749752      40.600232    
    200000   1.0621795      18.067103      40.390618    
    201000   0.96416339     17.807024      40.470176    
    202000   0.97316007     18.073139      40.252671    
    203000   1.0487623      17.890071      40.214885    
    204000   1.0535574      18.238328      40.134654    
    205000   0.97727661     17.749455      40.011801    
    206000   1.0310529      18.35836       39.890646    
    207000   1.0336055      17.984336      39.775204    
    208000   0.99522912     18.080397      39.530331    
    209000   0.98440306     18.077564      39.423406    
    210000   0.99877052     17.338444      39.288153    
    211000   0.94370556     17.845317      39.088243    
    212000   0.96298914     17.53286       38.951258    
    213000   0.96649959     17.515916      38.864557    
    214000   1.0169258      18.14521       38.655451    
    215000   0.97397607     18.211615      38.718219    
    216000   0.98054382     18.237874      38.629883    
    217000   1.016246       17.492368      38.617388    
    218000   1.0100086      17.431041      38.645201    
    219000   1.053221       17.915834      38.312022    
    220000   0.97716517     17.54634       38.268543    
    221000   1.0145675      18.21368       38.126019    
    222000   0.98285243     17.815568      38.06345     
    223000   1.0258061      18.168009      37.94635     
    224000   0.97066573     17.537426      37.889817    
    225000   1.0478572      17.519955      37.900812    
    226000   1.0611194      18.248666      37.850048    
    227000   1.0258428      17.818046      37.614327    
    228000   1.0156215      18.058574      37.391319    
    229000   1.0216337      18.087968      37.170944    
    230000   0.97324642     18.324476      36.952387    
    231000   1.0146197      17.314785      36.893558    
    232000   0.97790956     17.836906      36.766307    
    233000   1.0004328      17.226985      36.541588    
    234000   0.97484489     17.957797      36.557156    
    235000   0.97790127     17.67989       36.45608     
    236000   0.99081529     17.646444      36.426496    
    237000   0.9911264      17.75992       36.148344    
    238000   1.0091774      18.213473      36.082477    
    239000   0.98848368     17.66475       35.963913    
    240000   0.98681666     17.999363      36.114571    
    241000   1.0222382      17.885257      35.766563    
    242000   1.0007155      17.802466      35.677457    
    243000   1.024295       17.886183      35.404886    
    244000   1.019363       17.692877      35.327106    
    245000   1.0018904      17.843843      35.058701    
    246000   1.0154288      18.076438      35.066247    
    247000   0.99688882     17.885586      34.794492    
    248000   1.0190829      18.139834      34.568225    
    249000   1.0172851      17.554784      34.496781    
    250000   1.0079745      18.658988      34.039689    
    251000   0.98094883     17.139816      34.376044    
    252000   0.96489738     17.922802      34.306072    
    253000   1.0107395      17.716366      34.25862     
    254000   1.000279       17.76782       34.28726     
    255000   1.0046706      17.995015      34.210781    
    256000   0.97752921     17.513652      34.075454    
    257000   0.98786889     17.693853      34.097459    
    258000   1.0460935      17.765128      33.810669    
    259000   0.98893911     18.032192      33.530883    
    260000   1.0190888      17.689376      33.410361    
    261000   1.0033619      17.679218      33.295973    
    262000   1.0195779      17.258625      33.079665    
    263000   1.0312829      17.870741      32.849134    
    264000   1.0107912      17.977063      32.888183    
    265000   0.9833094      17.830659      32.802152    
    266000   1.0323709      18.071823      32.611593    
    267000   0.99290809     16.93266       32.609171    
    268000   1.0241632      17.211908      32.734811    
    269000   1.030661       17.922831      32.37974     
    270000   0.9877121      17.518862      32.13076     
    271000   0.98114335     17.54612       32.232617    
    272000   1.0583907      17.885704      32.095702    
    273000   1.024096       17.624147      31.928556    
    274000   0.99322022     17.30509       31.712424    
    275000   0.95453686     17.4375        31.607803    
    276000   1.0286432      17.603433      31.675084    
    277000   1.008514       17.789861      31.762162    
    278000   0.97000935     17.701224      31.641625    
    279000   0.96294909     17.736269      31.649867    
    280000   0.97923599     18.384546      31.740316    
    281000   0.97000529     18.313212      31.714962    
    282000   0.97207956     17.316515      31.886522    
    283000   1.0060229      17.811054      31.813599    
    284000   1.0082959      18.37382       31.648054    
    285000   0.98763801     17.38245       31.718139    
    286000   1.0358373      17.729584      31.603646    
    287000   0.99808886     17.105549      31.448452    
    288000   0.97976343     17.413123      31.205228    
    289000   0.99626953     18.166119      31.182301    
    290000   0.98673497     17.304214      31.272234    
    291000   0.95910408     17.666257      31.289264    
    292000   0.93633337     18.098446      31.323674    
    293000   1.0481662      17.941653      31.321422    
    294000   1.0188371      17.738576      31.148196    
    295000   0.97032704     17.91187       31.236636    
    296000   0.9671135      17.693338      31.244553    
    297000   1.0608893      18.104405      31.17469     
    298000   0.98815597     17.543041      30.884186    
    299000   1.0180961      17.53509       30.834123    
    300000   1.0220457      17.821677      30.877107    
    301000   0.94652415     17.506222      30.5509      
    302000   1.0127458      17.718689      30.734299    
    303000   1.0239649      17.749371      31.012296    
    304000   1.0210503      17.767389      30.723763    
    305000   0.99949084     17.629194      30.465869    
    306000   1.0190064      17.947522      30.296551    
    307000   0.98224743     17.446592      30.26229     
    308000   1.000464       18.009935      30.028766    
    309000   1.0107447      17.461188      29.896216    
    310000   0.98220249     17.695509      29.781027    
    311000   1.0225269      18.07745       29.547577    
    312000   1.0156862      17.823286      29.271318    
    313000   0.98844359     17.974719      29.133634    
    314000   1.0030159      17.437687      28.994087    
    315000   0.99937227     17.305308      29.164432    
    316000   0.98086405     17.533608      29.104653    
    317000   0.9660081      17.348675      29.138905    
    318000   1.0287749      17.334319      29.124326    
    319000   1.0088055      17.29961       28.920051    
    320000   0.99191862     17.680238      28.435199    
    321000   1.0059188      17.708648      28.259931    
    322000   1.0449771      17.263573      28.310898    
    323000   1.031222       17.591376      28.06242     
    324000   1.067003       17.849028      27.90239     
    325000   1.0086314      17.507311      27.898805    
    326000   0.95773281     17.282118      27.881789    
    327000   1.031137       17.330326      27.902691    
    328000   1.0269968      18.163759      27.990573    
    329000   1.0058963      17.31803       27.826891    
    330000   0.99898113     17.568646      27.691536    
    331000   0.96274946     17.027635      27.629838    
    332000   0.97467584     17.774576      27.684202    
    333000   0.96746495     17.296254      27.613715    
    334000   0.99637219     17.628154      27.394418    
    335000   0.97063387     18.129776      27.398417    
    336000   0.98674882     17.675489      27.371611    
    337000   0.99411856     17.808687      27.439072    
    338000   1.0264467      17.378958      27.532328    
    339000   0.99759368     18.319588      27.329797    
    340000   0.955726       16.553507      27.247601    
    341000   0.98986418     17.028254      27.199295    
    342000   1.0063161      17.414017      27.150977    
    343000   1.0300408      17.780174      26.76007     
    344000   0.9667348      17.781669      26.450722    
    345000   1.0558031      18.093611      26.529145    
    346000   1.0041332      17.781832      26.325516    
    347000   1.0155845      16.984201      26.544996    
    348000   0.97955724     17.033774      26.503043    
    349000   0.99430161     17.71793       26.163701    
    350000   1.0157251      17.851674      25.744766    
    351000   0.99754325     17.67005       25.842283    
    352000   1.0059227      17.70541       26.131934    
    353000   1.0693376      17.346975      26.114238    
    354000   0.99398488     17.627964      25.961525    
    355000   0.97005454     17.931893      25.821593    
    356000   1.0196079      17.698761      26.047415    
    357000   1.0237326      17.640283      25.982971    
    358000   0.96689004     17.358471      26.015002    
    359000   1.0011383      17.928254      26.096938    
    360000   1.0105914      17.849383      25.790153    
    361000   0.96507685     17.530502      25.745542    
    362000   1.0262376      17.798593      25.662605    
    363000   1.0275005      17.594428      25.33368     
    364000   1.0222743      16.994063      25.438684    
    365000   1.0282581      17.999739      25.306185    
    366000   1.0369554      17.96916       25.283688    
    367000   0.98815562     17.232094      25.145559    
    368000   0.96907346     17.293162      25.119691    
    369000   0.9709462      17.252955      24.946189    
    370000   0.9609127      17.638117      24.933635    
    371000   1.0118211      17.59616       24.934634    
    372000   1.0142625      17.279006      24.970094    
    373000   0.98227745     17.706653      24.922063    
    374000   1.0036632      17.155736      24.658767    
    375000   0.99399961     17.529901      24.561254    
    376000   0.98497402     17.036503      24.223692    
    377000   0.97297751     17.772621      24.033026    
    378000   1.0364553      17.089729      24.000504    
    379000   1.0230478      16.792538      24.008037    
    380000   0.99818465     17.659842      24.196572    
    381000   0.98538439     17.877002      23.942658    
    382000   1.014023       17.5228        23.906654    
    383000   0.96583179     17.272487      23.914483    
    384000   0.9603771      17.062509      23.703153    
    385000   1.0022874      17.751033      23.847938    
    386000   0.98799513     17.704052      23.613466    
    387000   1.024123       17.839709      23.398842    
    388000   1.0069266      17.386215      23.248713    
    389000   0.9919548      17.29465       23.271091    
    390000   0.96054645     17.178668      23.357487    
    391000   0.98191597     17.401587      23.309838    
    392000   0.95910346     17.417686      23.299101    
    393000   1.0435817      18.007791      23.235571    
    394000   0.96367143     17.500729      23.212983    
    395000   0.98266638     17.377172      22.969802    
    396000   1.0178058      17.732802      22.62388     
    397000   0.99207329     17.830812      22.484736    
    398000   0.99415737     17.42578       22.443419    
    399000   1.0039863      17.321005      22.381985    
    400000   1.015268       17.815307      22.18694     
    401000   1.0245167      17.395118      22.250662    
    402000   0.99294697     17.802683      22.24849     
    403000   0.97533149     18.390158      22.286021    
    404000   1.0102975      17.724593      22.25067     
    405000   0.98349763     17.520149      22.139312    
    406000   0.97513848     16.827491      22.183689    
    407000   1.0262052      17.47436       22.093841    
    408000   0.99574244     17.254728      21.990711    
    409000   1.0300099      17.667244      21.841425    
    410000   0.97895742     16.940793      21.868813    
    411000   1.0129999      17.848654      21.832899    
    412000   0.94245842     17.591032      21.869022    
    413000   0.99727791     17.36802       21.644232    
    414000   0.96097031     17.266428      21.781763    
    415000   0.97673564     18.291208      21.761703    
    416000   1.0064161      17.756341      21.869333    
    417000   0.98934651     17.550898      21.825178    
    418000   1.0093674      17.430641      21.743411    
    419000   0.99034488     17.379433      21.679311    
    420000   0.96014404     17.456776      21.642671    
    421000   0.98348744     17.919053      21.325964    
    422000   0.9772298      17.847029      21.245314    
    423000   0.96038336     17.858324      21.351223    
    424000   1.0262612      18.058468      21.279598    
    425000   0.99184028     17.939757      20.950562    
    426000   0.97746284     17.840072      20.833193    
    427000   1.0086456      17.51483       20.814745    
    428000   0.99932479     17.710321      20.517299    
    429000   1.0198109      17.173212      20.517397    
    430000   1.0110208      16.918691      20.213411    
    431000   1.0376399      17.589732      19.97176     
    432000   1.0458949      17.382497      20.045161    
    433000   0.9625651      17.615957      19.823621    
    434000   1.0093389      17.747541      19.481382    
    435000   0.97867816     17.913677      19.619848    
    436000   0.99328384     17.784662      19.803453    
    437000   0.98488958     17.61017       19.591089    
    438000   0.96015796     17.222868      19.648599    
    439000   1.015683       17.217015      19.507668    
    440000   0.95977933     17.316459      19.278719    
    441000   0.97698963     17.571019      19.028376    
    442000   1.0716301      17.320807      18.726932    
    443000   0.97107171     17.435723      18.416826    
    444000   1.0018816      17.32205       18.16488     
    445000   0.97562571     17.593809      18.104999    
    446000   1.0222763      16.870382      18.027808    
    447000   0.98666931     17.822305      17.93553     
    448000   0.99093517     16.941701      17.995149    
    449000   1.0263395      17.361578      17.774586    
    450000   1.0023619      16.739209      17.494893    
    451000   0.93797005     17.074126      17.60208     
    452000   0.99581301     17.362652      17.436761    
    453000   1.0018175      17.531967      17.252795    
    454000   0.97423598     16.917726      17.247537    
    455000   1.0143169      17.240285      17.076549    
    456000   1.0151818      17.552356      16.875015    
    457000   0.96801161     17.824676      16.616849    
    458000   0.98506678     17.153711      16.724923    
    459000   0.98625715     17.608018      16.644964    
    460000   1.0222775      17.632294      16.713171    
    461000   1.0029418      17.320383      16.518394    
    462000   0.97152215     17.631512      16.442129    
    463000   0.98880354     17.834087      16.322254    
    464000   1.0169894      17.522448      16.531389    
    465000   1.0243667      17.621359      16.297356    
    466000   0.98461449     17.42935       16.446257    
    467000   1.0313881      17.195634      16.36703     
    468000   0.99385439     16.673018      15.872881    
    469000   1.0151349      17.508238      15.830195    
    470000   1.0267182      17.191293      15.594507    
    471000   0.9849611      17.204859      15.265062    
    472000   0.99437223     16.757445      15.316712    
    473000   0.99139695     17.663204      15.298321    
    474000   1.0016318      17.048958      15.157616    
    475000   0.998406       17.003087      14.973274    
    476000   0.99758282     17.251645      15.018316    
    477000   0.99861733     16.638758      14.853303    
    478000   0.99768478     17.45699       14.688784    
    479000   1.0412082      17.256588      14.626003    
    480000   0.97265497     17.299081      14.476283    
    481000   0.96684105     17.010862      14.641452    
    482000   0.99248863     17.535929      14.458462    
    483000   0.9926931      17.014133      14.432943    
    484000   1.0446024      17.626653      14.256483    
    485000   0.97563852     17.227824      14.438813    
    486000   0.94717238     17.130883      14.277974    
    487000   1.0069082      17.273741      14.164859    
    488000   0.98085569     17.386407      14.204308    
    489000   0.9880264      16.913272      14.122842    
    490000   1.0110524      16.853819      13.896208    
    491000   1.0012738      17.397059      13.916413    
    492000   1.0098413      16.641031      13.697588    
    493000   0.96025418     17.672555      13.565427    
    494000   0.99969376     17.217887      13.512681    
    495000   1.0853683      17.650223      13.262423    
    496000   0.99260901     17.02562       13.218892    
    497000   0.98516612     17.12838       13.091203    
    498000   1.0503621      17.330778      13.155237    
    499000   0.9867883      17.82187       13.179157    
    500000   0.97427589     17.171086      13.246057    
    501000   0.99389868     17.566184      13.254279    
    502000   0.95153401     17.388663      13.273994    
    503000   1.0258472      17.117086      13.291219    
    504000   1.0106055      16.875402      13.103848    
    505000   1.0360042      17.646854      13.084601    
    506000   0.9703063      17.168412      12.634824    
    507000   1.0268544      17.684992      12.429129    
    508000   1.0152125      17.537605      12.456389    
    509000   0.96575293     17.691712      12.304075    
    510000   1.0101026      17.213285      12.272805    
    511000   0.99487515     17.387201      12.160544    
    512000   1.01227        17.040102      12.153621    
    513000   0.99701326     16.654806      12.154488    
    514000   0.98937456     17.558264      12.278311    
    515000   1.0157314      16.857468      12.109172    
    516000   0.99979403     17.004853      12.05028     
    517000   1.0064813      17.631155      12.031382    
    518000   1.0421761      17.692494      11.943186    
    519000   1.0161549      17.089811      11.872018    
    520000   0.95870925     17.703633      11.864943    
    521000   1.0338526      16.95973       11.645849    
    522000   0.99153381     17.57261       11.700446    
    523000   1.0322208      17.627694      11.587519    
    524000   1.0181519      17.148165      11.393913    
    525000   1.0136964      17.158111      11.084409    
    526000   1.0315481      17.093164      10.937332    
    527000   0.95976232     17.190162      11.020058    
    528000   1.0177806      17.655462      10.892489    
    529000   0.98181732     16.528698      10.701476    
    530000   1.0654781      16.990588      10.453038    
    531000   1.0007216      16.859705      10.49296     
    532000   1.0135364      17.91861       10.520438    
    533000   0.98463696     17.491913      10.61785     
    534000   1.026348       17.44026       10.628279    
    535000   1.0563396      17.772548      10.454521    
    536000   0.9494678      16.937411      10.264809    
    537000   1.0309892      17.506595      10.448759    
    538000   0.99083994     17.789916      10.543       
    539000   0.99196813     17.802886      10.410872    
    540000   0.99444711     17.388637      10.175667    
    541000   0.99136718     17.137697      10.056149    
    542000   0.95496438     17.236386      9.9409825    
    543000   1.009632       17.183172      9.9659052    
    544000   0.99787489     17.107611      9.8530503    
    545000   1.0587946      17.7438        9.7467303    
    546000   0.96208477     16.950146      9.7818238    
    547000   0.98683532     17.025054      9.5541066    
    548000   1.0190257      16.958239      9.633254     
    549000   0.95691086     16.951345      9.7877648    
    550000   1.0644337      17.244408      9.6701551    
    551000   1.0145733      17.459446      9.5950939    
    552000   1.0094523      17.20159       9.5455464    
    553000   0.99461187     16.782771      9.3458169    
    554000   1.0208165      17.579734      8.9678682    
    555000   0.9763059      17.523595      9.0686945    
    556000   0.99696802     16.83857       9.0439548    
    557000   0.93714474     16.402106      9.042512     
    558000   1.0261165      17.40769       8.8330701    
    559000   1.0453854      17.127542      8.8174005    
    560000   0.96048858     16.319589      8.8215768    
    561000   1.0404929      16.94987       8.6720062    
    562000   0.9895505      16.843126      8.6316942    
    563000   0.98097926     16.826079      8.6770207    
    564000   0.98495086     17.352697      8.4727276    
    565000   1.0501817      17.120929      8.4857379    
    566000   1.0007028      17.282086      8.412733     
    567000   1.0399123      17.25771       8.5162959    
    568000   0.99953654     17.172375      8.3550275    
    569000   1.0252007      17.619914      8.4834396    
    570000   1.0299036      17.107888      8.2790904    
    571000   1.0070764      16.742233      8.3787883    
    572000   1.0000366      17.359492      8.2905381    
    573000   1.0089157      17.639998      8.3212863    
    574000   0.95592898     16.947068      8.1445245    
    575000   0.98429492     16.901317      8.259413     
    576000   1.0143914      17.074194      8.16247      
    577000   1.0783599      16.997734      8.1028256    
    578000   1.0183558      17.623651      7.9433917    
    579000   0.9786173      16.873741      7.9061543    
    580000   0.98145793     17.029348      8.0012863    
    581000   0.97877311     17.289268      7.964949     
    582000   1.0179133      17.067185      7.5858044    
    583000   1.0088211      16.902617      7.5352553    
    584000   1.0579954      17.281765      7.4238386    
    585000   0.96581583     17.368763      7.3018165    
    586000   0.99908866     17.347516      7.239435     
Fix halt condition for fix-id 3 met on step 587000 with value 6.969250310169939 (src/fix_halt.cpp:237)
    587000   0.9709027      16.554957      6.9692503    
Loop time of 616.543 on 2 procs for 487000 steps with 887 atoms

Performance: 682462.911 tau/day, 789.888 timesteps/s
135.9% CPU use with 1 MPI tasks x 2 OpenMP threads

MPI task timing breakdown:
Section |  min time  |  avg time  |  max time  |%varavg| %total
---------------------------------------------------------------
Pair    | 173.76     | 173.76     | 173.76     |   0.0 | 28.18
Bond    | 11.855     | 11.855     | 11.855     |   0.0 |  1.92
Neigh   | 402.19     | 402.19     | 402.19     |   0.0 | 65.23
Comm    | 0.18914    | 0.18914    | 0.18914    |   0.0 |  0.03
Output  | 1.709      | 1.709      | 1.709      |   0.0 |  0.28
Modify  | 25.105     | 25.105     | 25.105     |   0.0 |  4.07
Other   |            | 1.74       |            |       |  0.28

Nlocal:            887 ave         887 max         887 min
Histogram: 1 0 0 0 0 0 0 0 0 0
Nghost:              0 ave           0 max           0 min
Histogram: 1 0 0 0 0 0 0 0 0 0
Neighs:         169353 ave      169353 max      169353 min
Histogram: 1 0 0 0 0 0 0 0 0 0

Total # of neighbors = 169353
Ave neighs/atom = 190.92785
Ave special neighs/atom = 1.9977452
Neighbor list builds = 4055
Dangerous builds = 0

# This simulation is done
# Move onto the next one
clear
  using 2 OpenMP thread(s) per MPI task
package omp 0
using multi-threaded neighbor list subroutines
next f
jump SELF

###
# Reference paper:
# K. Kremer and G. S. Grest
# Dynamics of entangled linear polymer melts: A molecular-dynamics simulation
# J Chem Phys 92, 5057 (1990)

##################################
# MIHIR: for branched polymers
# LJ minimum first to expand and explore, then collapse
###

###
# Looping through the various N7B4 polymers to simulate,
# define variables to switch through
variable f index bb36nuc7bl4bn4d30tot100V2 bb72nuc7bl9bn4d30tot200V2 bb109nuc7bl13bn4d30tot300V2 bb145nuc7bl18bn4d30tot400V2 bb181nuc7bl22bn4d30tot500V2 bb218nuc7bl27bn4d30tot600V2 bb254nuc7bl31bn4d30tot700V2 bb290nuc7bl36bn4d30tot800V2 bb327nuc7bl40bn4d30tot900V2 bb363nuc7bl45bn4d30tot1000V2 bb400nuc7bl50bn4d30tot1100V2 bb436nuc7bl54bn4d30tot1200V2
# variable f index bb36nuc7bl4bn4d30tot100V3 bb72nuc7bl9bn4d30tot200V3 bb109nuc7bl13bn4d30tot300V3 bb145nuc7bl18bn4d30tot400V3 bb181nuc7bl22bn4d30tot500V3 bb218nuc7bl27bn4d30tot600V3 bb254nuc7bl31bn4d30tot700V3 bb290nuc7bl36bn4d30tot800V3 bb327nuc7bl40bn4d30tot900V3 bb363nuc7bl45bn4d30tot1000V3 bb400nuc7bl50bn4d30tot1100V3 bb436nuc7bl54bn4d30tot1200V3
# variable f index bb36nuc7bl4bn4d30tot100 bb72nuc7bl9bn4d30tot200 bb109nuc7bl13bn4d30tot300 bb145nuc7bl18bn4d30tot400 bb181nuc7bl22bn4d30tot500 bb218nuc7bl27bn4d30tot600 bb254nuc7bl31bn4d30tot700 bb290nuc7bl36bn4d30tot800 bb327nuc7bl40bn4d30tot900 bb363nuc7bl45bn4d30tot1000 bb400nuc7bl50bn4d30tot1100 bb436nuc7bl54bn4d30tot1200
###


###
# Box and units  (use LJ units and periodic boundaries)
###

units lj
log N7B4/trial2/logs2/$f.log
log N7B4/trial2/logs2/bb363nuc7bl45bn4d30tot1000V2.log
