#atom_style bond #no stiffness
atom_style angle #with stiffness

boundary        p p p
###
# Pair interactions require lists of neighbours to be calculated
###

#neighbor 0.3 bin
neighbor 4 bin

neigh_modify every 1 delay 1 check yes
atom_modify sort 0 0
### Generate RESTART file, SPECIAL format, not a .txt file ###
### Useful if simulation crashes ###

restart 1000000 N1B3/trial2/restarts/$f.restart
restart 1000000 N1B3/trial2/restarts/bb733nuc1bl366bn3d30tot1100V2.restart
#############################



### READ "start" data file ###

read_data N1B3/trial2/dats2/$f.dat
read_data N1B3/trial2/dats2/bb733nuc1bl366bn3d30tot1100V2.dat
Reading data file ...
  orthogonal box = (-1000 -1000 -1000) to (1000 1000 1000)
  1 by 1 by 1 MPI processor grid
  reading atoms ...
  1099 atoms
  scanning bonds ...
  2 = max bonds/atom
  scanning angles ...
  3 = max angles/atom
  reading bonds ...
  1098 bonds
  reading angles ...
  1098 angles
Finding 1-2 1-3 1-4 neighbors ...
  special bond factors lj:    0        0        0       
  special bond factors coul:  0        0        0       
     3 = max # of 1-2 neighbors
     3 = max # of 1-3 neighbors
     6 = max # of 1-4 neighbors
     9 = max # of special neighbors
  special bonds CPU = 0.002 seconds
  read_data CPU = 0.267 seconds

######################

### READ "REstart" data file ###

######################



###
# Define groups (atom type 1 is group 'all')
###
group all type 1
1099 atoms in group all


###
# Dump configs - "simple dumpings"
###

###
# Dump configs + box coords
###

dump   1   all   custom   1000  N1B3/trial2/trjs/$f.lammpstrj  id  x y z  ix iy iz
dump   1   all   custom   1000  N1B3/trial2/trjs/bb733nuc1bl366bn3d30tot1100V2.lammpstrj  id  x y z  ix iy iz
dump_modify   1   format line "%d %.5f %.5f %.5f %d %d %d"

########################################################################


###################################################################
# Stiffness term
#
# E = K * (1+cos(theta)), K>0
#
angle_style   cosine
#change this coefficient to change stiffness (e.g. 1,5,10)
angle_coeff   1 1.0
###################################################################

###################################################################
# Pair interaction between non-bonded atoms
#
#  Lennard-Jones 12-6 potential with cutoff:
#  potential E=4epsilon[ (sigma/r)^12 - (sigma/r)^6]  for r<r_cut
#
#  1.12246 = 2^(1/6) is the minimum of the potential


pair_style      lj/cut 1.12246152962189
#pair_style      lj/cut 3

#
#  pair_modify shift yes adds a constant to the potential such

#  that E(r_cut)=0. Forces remains unchanged.
#

pair_modify     shift yes

#
#  pair_coeff for lj/cut, specify 4:
#    * atom type interacting with
#    * atom type
#    * epsilon (energy units)
#    * sigma (distance units)
#

pair_coeff      1 1 1.0 1.0
###################################################################

###################################################################
# Pair interaction between non-bonded atoms
#
#  soft potential, for PUSHING apart overlapping atoms
#  potential E=A*(1 + cos(pi*r/r_c))
#
#  1.12246 = 2^(1/6) is the cut-off r_c

#pair_style     soft 1.12246152962189

#
#  pair_coeff for soft, specify 3:
#    * atom type interacting with
#    * atom type
#    * A
#
#

#pair_coeff      1 1 100.0
###################################################################

###################################################################
# Pair interaction between bonded atoms
#
# Fene potential + Lennard Jones 12-6:

#
#  E= - 0.5 K R0^2 ln[ 1- (r/R0)^2]
#     + 4epsilon[ (sigma/r)^12 - (sigma/r)^6] + epsilon
#

bond_style   fene


#
# For style fene, specify:
#   * bond type
#   * K (energy/distance^2)
#   * R0 (distance)
#   * epsilon (energy)  (LJ component)
#   * sigma (distance)  (LJ component)
#


special_bonds fene #<=== I M P O R T A N T (new command)
Finding 1-2 1-3 1-4 neighbors ...
  special bond factors lj:    0        1        1       
  special bond factors coul:  0        1        1       
     3 = max # of 1-2 neighbors
     9 = max # of special neighbors
  special bonds CPU = 0.001 seconds

bond_coeff   1   30   2   1.0   1.0


###################################################

###################################################################
# Pair interaction between bonded atoms
#
# Harmonic potential:
#
#  E= K * (R-R0)^2
#

#bond_style   harmonic

#
# For style harmonic, specify:
#   * bond type
#   * K (energy/distance^2)
#   * R0 (distance)
#

#bond_coeff   1   60.0   1.0
#bond_coeff   2   harmonic 0.1   1.0

###################################################
compute 1 all gyration
variable rog equal c_1
#compute 2 all coord/atom cutoff 1.1

#dump 2 all custom 10000 contact_number.dump id c_2


###
# Set up fixes
###
thermo_style   custom   step  temp enthalpy c_1
fix 1 all nve   ###NVE ensemble

fix 2 all   langevin   1.0 1.0 1.0  778655   ###Langevin integrator Tstart Tstop 1/friction rndseed


##### Sample thermodynamic info  (temperature, energy, pressure, etc.) #####
thermo 1000









############################################################################

###
# set timestep of integrator

timestep 0.01

###
# run integration for a number of steps
###
#run 0
#variable r equal c_1
#if "$r < 63.1" then "quit 1"

# lj potential minimum, cause molecule to explore
run 100000
Generated 0 of 0 mixed pair_coeff terms from geometric mixing rule
Last active /omp style is angle_style cosine/omp
Neighbor list info ...
  update: every = 1 steps, delay = 1 steps, check = yes
  max neighbors/atom: 2000, page size: 100000
  master list distance cutoff = 5.1224615
  ghost atom cutoff = 5.1224615
  binsize = 2.5612308, bins = 781 781 781
  1 neighbor lists, perpetual/occasional/extra = 1 0 0
  (1) pair lj/cut/omp, perpetual
      attributes: half, newton on, omp
      pair build: half/bin/newton/omp
      stencil: half/bin/3d
      bin: standard
WARNING: Communication cutoff 5.12246152962189 is shorter than a bond length based estimate of 5.455. This may lead to errors. (src/comm.cpp:723)
Per MPI rank memory allocation (min/avg/max) = 1860 | 1860 | 1860 Mbytes
   Step          Temp         Enthalpy         c_1      
         0   0              13.413857      181.34178    
      1000   1.0355313      18.649931      181.00033    
      2000   1.0201451      18.733988      180.77262    
      3000   1.0013883      19.229409      180.57121    
      4000   1.0240517      19.164348      180.3862     
      5000   0.96435419     19.119656      180.11252    
      6000   0.95692549     18.402301      179.91996    
      7000   1.0153211      19.359454      179.81809    
      8000   1.0357509      19.157044      179.74744    
      9000   1.0026198      19.157612      179.25036    
     10000   0.97962953     18.95403       178.67209    
     11000   1.0037859      18.956503      178.29305    
     12000   1.0215905      19.10087       178.09656    
     13000   0.96464293     18.88799       177.83943    
     14000   1.0124111      19.176977      177.61929    
     15000   0.9961579      19.060379      177.18247    
     16000   1.0034844      18.965813      177.01094    
     17000   1.0158668      19.095863      176.84112    
     18000   1.0330143      19.350793      176.71758    
     19000   0.98546377     19.336859      176.47325    
     20000   1.0054634      19.170137      176.13       
     21000   0.9922574      19.185276      175.84425    
     22000   0.99402745     18.9657        175.56225    
     23000   1.0190334      19.21929       175.30332    
     24000   0.97550674     19.424625      174.9835     
     25000   0.98654446     18.825479      174.69323    
     26000   1.0083716      19.237119      174.23314    
     27000   1.0164701      19.22316       174.01772    
     28000   1.0197422      19.163628      173.88363    
     29000   1.0067242      19.157226      173.54595    
     30000   1.0086497      19.29841       173.3734     
     31000   0.97351384     19.058845      173.12269    
     32000   1.0160391      19.105659      173.27167    
     33000   0.99728821     19.614394      173.25994    
     34000   1.006989       18.719979      173.28243    
     35000   1.0147922      19.379686      173.28612    
     36000   1.021988       19.572433      173.14708    
     37000   1.030919       19.65969       173.13337    
     38000   1.0020233      19.181508      173.11448    
     39000   0.95578878     19.004483      172.88376    
     40000   0.96507787     18.927751      172.73478    
     41000   1.036183       19.688692      172.58805    
     42000   0.98105371     19.764002      172.32553    
     43000   1.0230695      18.978931      172.03262    
     44000   1.0069688      19.436967      172.01909    
     45000   0.9890377      19.498364      171.90154    
     46000   0.97050043     19.294622      171.61408    
     47000   1.0196417      19.674817      171.29045    
     48000   0.98665992     20.034077      171.10794    
     49000   0.99426067     18.889717      171.03088    
     50000   1.001757       19.278838      170.95476    
     51000   1.0178781      19.753714      170.90023    
     52000   1.0112941      19.748298      170.59254    
     53000   0.99541195     19.665907      170.51216    
     54000   1.0035315      19.844706      170.38575    
     55000   0.99832066     19.622484      170.53728    
     56000   0.97702952     19.409975      170.39031    
     57000   0.94080147     19.219424      169.91483    
     58000   0.99897514     19.71625       169.8199     
     59000   1.0588488      19.505659      169.75075    
     60000   0.98273902     19.652466      169.72924    
     61000   1.0023462      19.558182      169.62644    
     62000   1.0178157      19.372953      169.42203    
     63000   0.99492861     19.506647      169.34654    
     64000   1.0007266      19.75876       169.2938     
     65000   1.0094289      19.051576      168.8726     
     66000   0.99632602     19.559741      168.8159     
     67000   1.0084582      19.293948      168.64513    
     68000   1.0241869      19.922929      168.63346    
     69000   0.98690553     19.524214      168.46757    
     70000   0.99790238     19.59307       168.13236    
     71000   1.0169045      19.440629      168.06971    
     72000   1.0146795      19.731763      167.68424    
     73000   1.035488       20.469549      167.28699    
     74000   1.0253674      19.846265      167.15043    
     75000   1.0455406      19.520958      166.98249    
     76000   0.98961178     19.367295      167.04266    
     77000   0.99133524     19.529021      166.75119    
     78000   0.96519612     19.612719      166.78481    
     79000   1.0106318      19.392101      166.52161    
     80000   0.98822946     19.59036       166.23314    
     81000   1.0035712      19.969334      166.24171    
     82000   1.0395181      19.697505      166.15449    
     83000   1.0079303      19.897785      166.09448    
     84000   0.98566046     19.521387      165.97135    
     85000   0.99737116     19.636168      165.99363    
     86000   0.96819412     19.322585      165.85858    
     87000   1.022123       20.00985       165.55606    
     88000   0.96280689     19.537302      165.5659     
     89000   0.99006233     19.530318      165.46889    
     90000   1.0625808      19.917153      165.50598    
     91000   0.93875089     19.712549      165.33653    
     92000   1.007956       19.758837      165.33793    
     93000   0.93929022     20.006229      165.1739     
     94000   0.99966816     19.870375      165.18972    
     95000   1.0041724      19.584121      164.99878    
     96000   0.94300637     19.530898      164.93441    
     97000   1.012896       20.063696      164.67524    
     98000   0.96563301     19.521742      164.52675    
     99000   1.0285852      19.954711      164.43495    
    100000   0.9994899      19.837008      164.36852    
Loop time of 291.477 on 2 procs for 100000 steps with 1099 atoms

Performance: 296421.249 tau/day, 343.080 timesteps/s
103.6% CPU use with 1 MPI tasks x 2 OpenMP threads

MPI task timing breakdown:
Section |  min time  |  avg time  |  max time  |%varavg| %total
---------------------------------------------------------------
Pair    | 1.0604     | 1.0604     | 1.0604     |   0.0 |  0.36
Bond    | 2.3288     | 2.3288     | 2.3288     |   0.0 |  0.80
Neigh   | 282.32     | 282.32     | 282.32     |   0.0 | 96.86
Comm    | 0.032372   | 0.032372   | 0.032372   |   0.0 |  0.01
Output  | 0.33275    | 0.33275    | 0.33275    |   0.0 |  0.11
Modify  | 5.0621     | 5.0621     | 5.0621     |   0.0 |  1.74
Other   |            | 0.3397     |            |       |  0.12

Nlocal:           1099 ave        1099 max        1099 min
Histogram: 1 0 0 0 0 0 0 0 0 0
Nghost:              0 ave           0 max           0 min
Histogram: 1 0 0 0 0 0 0 0 0 0
Neighs:           5759 ave        5759 max        5759 min
Histogram: 1 0 0 0 0 0 0 0 0 0

Total # of neighbors = 5759
Ave neighs/atom = 5.2402184
Ave special neighs/atom = 1.9981802
Neighbor list builds = 1098
Dangerous builds = 0

# Replace lj potential, now collapse
pair_style      lj/cut 3

# Cutoff simul when gyration under 7
# Variable created with equal requires v_ + 'name'
fix 3 all halt 1000 v_rog < 7

run 5000000
Generated 0 of 0 mixed pair_coeff terms from geometric mixing rule
Last active /omp style is angle_style cosine/omp
Per MPI rank memory allocation (min/avg/max) = 1860 | 1860 | 1860 Mbytes
   Step          Temp         Enthalpy         c_1      
    100000   0.9994899      19.345729      164.36852    
    101000   0.95849331     18.958898      164.30384    
    102000   1.0040381      19.508508      163.88352    
    103000   1.0215009      18.650419      163.48845    
    104000   1.0083672      19.153235      163.21609    
    105000   1.0431279      19.211085      163.08858    
    106000   1.0017852      18.973971      162.91439    
    107000   1.0335154      19.351427      162.57729    
    108000   1.0138097      19.107481      162.32516    
    109000   1.0275924      19.638076      162.33551    
    110000   1.0340443      19.559064      162.17552    
    111000   1.0305811      19.404458      162.00601    
    112000   0.97287059     18.893291      161.91384    
    113000   1.0454952      18.954051      161.7651     
    114000   1.0280382      19.154499      161.62191    
    115000   1.0256144      19.203521      161.40578    
    116000   0.97700992     18.791433      161.33939    
    117000   1.0112842      19.499571      161.11243    
    118000   1.029519       19.405371      160.833      
    119000   1.0184119      19.405007      160.77232    
    120000   0.98993582     19.355483      160.59459    
    121000   1.0162435      19.072527      160.45925    
    122000   1.0154897      19.090391      160.05246    
    123000   0.99446821     19.436372      159.77656    
    124000   1.0107915      19.283717      159.43218    
    125000   1.0117377      19.297909      159.34997    
    126000   0.99583373     19.457945      158.95935    
    127000   1.0005809      19.212929      158.68997    
    128000   0.97995398     18.914136      158.68939    
    129000   1.0000707      19.173889      158.6466     
    130000   1.0416604      19.292595      158.49183    
    131000   0.96039127     19.289141      158.28349    
    132000   0.99046135     19.577107      158.22677    
    133000   1.0339689      19.429027      158.18141    
    134000   1.0148793      19.084598      158.02718    
    135000   0.98806568     18.993475      158.01303    
    136000   0.97203936     19.174028      157.68087    
    137000   1.0191872      19.742976      157.49533    
    138000   0.98477852     18.844545      157.30415    
    139000   0.98322595     19.300167      157.12591    
    140000   0.98860051     19.068054      156.80978    
    141000   0.99996083     19.119492      156.65929    
    142000   1.0217714      19.073591      156.67201    
    143000   1.0091735      19.350577      156.58288    
    144000   0.97868675     19.258325      156.46537    
    145000   1.0291207      19.605692      156.44221    
    146000   0.96817897     19.044623      156.30768    
    147000   0.99463769     18.663134      156.22169    
    148000   0.99870692     19.008796      156.31273    
    149000   1.0144327      19.554687      156.24908    
    150000   0.99815242     19.088257      156.26395    
    151000   1.0499352      19.330291      155.98684    
    152000   0.97413796     19.196382      155.91572    
    153000   1.0419851      18.882295      155.77043    
    154000   1.0415493      19.031909      155.72456    
    155000   0.98605066     19.066255      155.65298    
    156000   0.98704046     19.087993      155.58143    
    157000   0.98090578     19.091289      155.41118    
    158000   1.0084448      18.777198      155.33712    
    159000   0.98889893     19.113158      155.17523    
    160000   0.98587609     18.777438      155.06639    
    161000   0.98943001     19.541477      155.0532     
    162000   1.0074973      19.154572      154.80675    
    163000   1.0112005      18.810162      154.69589    
    164000   1.0299218      19.422583      154.35759    
    165000   0.9982254      19.050921      154.2581     
    166000   1.0217698      19.00477       153.87174    
    167000   1.0143178      19.845698      153.72482    
    168000   1.0023984      19.318758      153.22691    
    169000   0.99055964     19.607494      152.83234    
    170000   0.96393328     19.139317      152.68533    
    171000   0.97415878     19.043339      152.67843    
    172000   1.0246361      19.060028      152.55246    
    173000   1.0492094      18.882033      152.14611    
    174000   0.97948516     18.722193      151.87419    
    175000   0.99880198     19.329639      151.7496     
    176000   0.99792365     18.658281      151.50882    
    177000   1.0403034      19.46264       151.26671    
    178000   1.0229882      19.366029      151.08934    
    179000   1.01878        19.578802      151.20886    
    180000   0.99988245     19.247197      150.89651    
    181000   0.98801709     18.98402       150.72234    
    182000   1.0032841      18.896364      150.44081    
    183000   1.0456846      19.269588      150.37664    
    184000   1.0225553      19.310092      150.11811    
    185000   0.9629991      18.846661      149.98043    
    186000   0.99667431     19.04881       149.78868    
    187000   1.027967       19.592908      149.67089    
    188000   1.0279348      19.10294       149.44646    
    189000   0.94308305     18.773817      149.13044    
    190000   1.0187044      18.948106      149.00235    
    191000   1.0034489      19.472467      148.90142    
    192000   1.0169751      19.281761      148.75932    
    193000   1.0144165      19.577512      148.57136    
    194000   1.0207255      19.132768      148.36315    
    195000   1.0047094      19.351816      148.11652    
    196000   0.97655768     18.92169       147.90428    
    197000   0.96109684     19.455666      147.87275    
    198000   1.0039925      19.178709      147.93876    
    199000   1.0022746      18.911286      147.74002    
    200000   1.01725        18.71034       147.6094     
    201000   1.0195008      18.794806      147.56649    
    202000   1.0034532      19.117716      147.31032    
    203000   0.98335529     18.868057      147.2104     
    204000   0.97923684     19.322974      146.89544    
    205000   1.0040691      19.209379      146.87784    
    206000   1.0093114      18.766808      146.68001    
    207000   1.0062515      19.381315      146.58165    
    208000   0.96653469     18.670573      146.58072    
    209000   0.99506054     19.242433      146.42986    
    210000   1.051624       19.1107        146.11614    
    211000   1.0008742      19.078634      145.84266    
    212000   1.0214593      19.342764      145.65816    
    213000   1.045939       19.003915      145.70777    
    214000   1.0120055      19.085215      145.69224    
    215000   1.0343959      18.987522      145.35793    
    216000   1.012054       18.968708      145.15907    
    217000   1.0183969      19.098877      145.17862    
    218000   0.9638187      19.266518      145.28632    
    219000   0.96796274     18.669203      144.77145    
    220000   1.0241929      19.159077      144.35661    
    221000   0.96830195     19.188945      144.25969    
    222000   1.0116496      19.463048      144.18363    
    223000   0.97219267     19.012561      143.97278    
    224000   0.98264906     18.612059      143.90623    
    225000   1.0401372      19.1318        143.69776    
    226000   0.96870827     19.137378      143.47839    
    227000   0.99800733     19.204958      143.18915    
    228000   0.97108935     19.20053       143.22169    
    229000   1.0195722      18.859916      143.18977    
    230000   0.98668688     18.821627      142.98375    
    231000   0.94175915     18.947061      142.79774    
    232000   0.99394956     19.37302       142.72556    
    233000   0.98855405     19.218301      142.6636     
    234000   0.97293073     19.2155        142.71627    
    235000   1.0192675      19.275209      142.5785     
    236000   0.97611599     19.313817      142.49093    
    237000   0.96985219     18.563781      142.34175    
    238000   1.0402122      18.627266      142.28312    
    239000   1.0287062      18.908172      142.17188    
    240000   1.0125481      18.598879      142.09047    
    241000   1.0277607      19.028471      142.00606    
    242000   1.0023434      18.904094      141.87541    
    243000   0.97859878     18.818046      141.59852    
    244000   0.95210121     18.896651      141.60891    
    245000   0.9946227      18.845559      141.30641    
    246000   0.98394785     18.960909      141.24454    
    247000   0.98201339     18.664661      140.88746    
    248000   0.97431605     19.214705      140.66609    
    249000   1.0142774      18.938689      140.58163    
    250000   0.99137485     18.676784      140.5219     
    251000   1.0077439      19.417107      140.33101    
    252000   0.98211717     18.530549      140.19413    
    253000   1.0061122      18.890322      140.03402    
    254000   0.99871541     19.219965      140.04674    
    255000   1.0001952      19.108276      140.00657    
    256000   1.0204668      19.05629       139.76851    
    257000   1.0168333      18.998544      139.61799    
    258000   0.99662132     18.663785      139.34707    
    259000   1.0244315      18.740848      139.23754    
    260000   1.0468953      19.176256      139.17952    
    261000   1.0194826      19.149755      139.03476    
    262000   0.97382784     19.134328      138.85023    
    263000   0.97103737     19.227142      138.79705    
    264000   1.027876       19.026271      138.54791    
    265000   1.0014516      19.181142      138.43067    
    266000   1.0571729      19.296725      138.4101     
    267000   1.0269653      18.998386      138.24531    
    268000   0.97508234     19.39128       138.38635    
    269000   1.0252989      18.887136      138.33562    
    270000   0.98511862     18.53122       138.06406    
    271000   0.97693035     18.717795      137.88699    
    272000   0.99676983     18.887823      138.02888    
    273000   1.0087981      19.207503      138.05721    
    274000   0.96885215     19.105828      137.95209    
    275000   1.006484       19.355943      137.76709    
    276000   0.98094937     19.144752      137.79688    
    277000   0.96318156     18.865551      137.52554    
    278000   0.98340202     18.525325      137.28831    
    279000   0.99776036     18.976946      137.29943    
    280000   1.0127874      19.026769      137.1993     
    281000   0.99297465     19.481812      136.87925    
    282000   0.99033845     18.81006       136.75469    
    283000   1.0000536      18.694093      136.46967    
    284000   1.0290979      19.079456      136.32853    
    285000   0.98170153     18.949264      136.20203    
    286000   0.95406598     18.743389      135.90169    
    287000   1.0082898      18.475697      135.79265    
    288000   1.0297914      18.601004      135.78704    
    289000   0.99845046     19.222524      135.64082    
    290000   1.0109309      18.637715      135.69007    
    291000   1.0479781      19.06758       135.39715    
    292000   1.0482004      18.702833      135.30202    
    293000   0.97875963     19.3276        135.17429    
    294000   0.99814206     19.065845      134.79982    
    295000   0.99008044     18.612388      134.52895    
    296000   1.003441       18.727907      134.38926    
    297000   1.0110457      19.152423      134.39832    
    298000   0.96479824     18.883156      134.27514    
    299000   1.0115549      18.736653      133.98171    
    300000   1.0266425      19.282425      134.05626    
    301000   1.0505723      19.255559      134.25357    
    302000   1.0054174      18.754419      134.17894    
    303000   1.0415099      19.165623      134.07413    
    304000   1.0313599      19.446887      133.87572    
    305000   0.94714987     18.863379      133.77337    
    306000   1.0187001      18.92416       133.78094    
    307000   1.0235231      18.9068        133.68832    
    308000   1.0035179      19.233268      133.33039    
    309000   0.97064029     18.852435      133.2243     
    310000   1.0114684      18.872675      132.96902    
    311000   1.0106869      19.525002      132.69686    
    312000   0.99668664     19.183987      132.66981    
    313000   1.0370744      19.259262      132.25032    
    314000   1.0174249      18.713835      132.00669    
    315000   1.0556865      19.069802      131.84356    
    316000   0.99296809     19.128193      131.71498    
    317000   0.96972471     18.815103      131.39797    
    318000   0.99704538     18.725574      131.11592    
    319000   1.0196923      18.673352      131.16152    
    320000   1.0254317      19.146341      130.99802    
    321000   1.0111425      18.808847      130.61105    
    322000   0.98866404     19.235033      130.41768    
    323000   0.97506655     19.186252      130.01641    
    324000   1.0223904      19.10694       129.74349    
    325000   1.0118129      19.381169      129.59991    
    326000   1.0342249      18.718217      129.64517    
    327000   0.99706255     18.762982      129.62409    
    328000   1.013717       19.168377      129.56778    
    329000   0.97259758     18.321205      129.45706    
    330000   1.0018499      18.976945      129.24157    
    331000   1.0015375      18.831823      129.16437    
    332000   0.98315728     18.757034      129.20004    
    333000   0.99855321     19.151304      128.95053    
    334000   1.0052302      18.801509      128.62802    
    335000   1.0240086      19.046647      128.5252     
    336000   1.0062589      19.286597      128.53732    
    337000   0.9930775      18.882986      128.34503    
    338000   0.98350866     18.761377      128.14955    
    339000   0.98865997     18.710424      128.04926    
    340000   0.99190412     18.961718      128.10873    
    341000   1.0504562      18.871656      128.12719    
    342000   0.95641328     18.752075      128.0735     
    343000   0.99224173     19.162437      127.91336    
    344000   1.0235616      18.744872      127.80508    
    345000   0.9841733      18.803207      127.34265    
    346000   1.0297064      19.366464      127.20757    
    347000   0.9877413      19.256457      127.07229    
    348000   1.0012883      18.567965      126.70786    
    349000   1.0069274      18.759984      126.777      
    350000   1.0135087      19.668396      126.9963     
    351000   0.99593832     19.212573      127.02291    
    352000   0.96790294     18.298249      126.9796     
    353000   0.98515393     18.645641      126.78516    
    354000   1.0000515      18.86762       126.60225    
    355000   1.0131755      18.832793      126.45847    
    356000   0.99763791     18.931218      126.38331    
    357000   0.98969219     18.978113      126.29225    
    358000   0.94735672     18.85948       126.41042    
    359000   1.0147937      19.288037      126.26085    
    360000   1.0441961      18.754119      126.1787     
    361000   1.0312979      18.833016      126.35836    
    362000   1.0328868      18.849053      126.18516    
    363000   1.0032977      19.001313      125.90114    
    364000   1.0114641      18.863687      125.84325    
    365000   0.96492537     18.584701      125.94224    
    366000   1.0008324      19.047796      125.81948    
    367000   1.0136237      18.812029      125.80771    
    368000   0.98118124     19.672603      125.84047    
    369000   1.0250722      19.356629      125.83214    
    370000   1.0162722      18.80756       125.80401    
    371000   1.0024669      18.726636      125.62787    
    372000   1.061845       18.636669      125.43082    
    373000   0.94110472     18.819004      125.19433    
    374000   1.0376129      19.103372      125.00557    
    375000   1.0140571      18.703303      124.79767    
    376000   1.0129303      18.857129      124.62122    
    377000   0.99363973     19.022971      124.68547    
    378000   0.98566154     19.004976      124.67709    
    379000   0.96832794     18.707518      124.67358    
    380000   1.0153452      18.848733      124.47431    
    381000   0.98518075     18.829042      124.20696    
    382000   1.006363       18.614413      124.17124    
    383000   0.99109915     18.52854       123.95962    
    384000   0.99459533     18.794546      123.69373    
    385000   1.0098675      18.507299      123.59765    
    386000   0.9928241      19.140567      123.4554     
    387000   0.98398155     19.401328      123.45054    
    388000   1.0027458      18.764892      123.24837    
    389000   1.0079286      18.478424      123.08637    
    390000   0.98202824     18.374355      122.77909    
    391000   0.96950355     19.274049      122.51072    
    392000   0.99980329     18.806348      122.32298    
    393000   1.0185895      19.200249      122.10743    
    394000   0.97026325     19.075942      122.05408    
    395000   1.0001453      18.724114      121.85018    
    396000   1.014201       18.756482      121.79781    
    397000   0.99221868     19.239243      121.77447    
    398000   1.000688       18.180521      121.7756     
    399000   1.0158496      18.510668      121.5776     
    400000   0.9686981      18.57287       121.6465     
    401000   0.98618701     18.388142      121.42419    
    402000   1.0316186      19.213033      121.18347    
    403000   1.0116926      18.642457      120.88591    
    404000   1.026279       19.007457      120.84024    
    405000   1.00092        18.737351      121.01179    
    406000   1.0312547      19.364775      120.96019    
    407000   0.97829272     18.616954      121.00008    
    408000   0.96275985     19.448069      120.87729    
    409000   0.97641682     18.89789       120.78357    
    410000   0.97494741     18.429318      120.74778    
    411000   0.99041423     18.540434      120.61019    
    412000   1.001388       18.707352      120.51431    
    413000   0.97026507     18.614647      120.37043    
    414000   0.96055258     18.223278      120.42267    
    415000   0.99576944     18.753708      120.24947    
    416000   0.9910453      18.574552      120.3074     
    417000   0.9797279      19.335439      120.02202    
    418000   0.97760949     18.243245      119.89167    
    419000   1.0199931      19.01307       119.74917    
    420000   0.99974996     19.007537      119.69172    
    421000   1.0171003      18.759527      119.47415    
    422000   0.9732771      18.974541      119.19781    
    423000   1.0219352      18.42266       118.8051     
    424000   0.95899159     18.629108      118.67048    
    425000   1.0157347      18.524412      118.67029    
    426000   1.0083655      18.415414      118.39051    
    427000   0.98458234     19.200033      118.36042    
    428000   0.99807886     18.711173      118.34846    
    429000   1.0155085      18.9325        118.53136    
    430000   1.0143095      18.602625      118.60038    
    431000   1.0395964      18.890133      118.51479    
    432000   0.98085744     18.477637      118.41175    
    433000   1.0230387      18.83373       118.26375    
    434000   0.99604415     18.682376      118.34531    
    435000   0.95278776     18.71398       118.22285    
    436000   1.0222982      18.263684      118.47069    
    437000   1.0022704      18.484798      118.31966    
    438000   1.0173344      18.601004      118.08698    
    439000   0.99771188     18.128879      118.07596    
    440000   1.0408933      18.9544        118.01677    
    441000   1.0086609      18.694023      117.85349    
    442000   1.0176212      18.754162      117.75416    
    443000   1.0021039      18.295255      117.5575     
    444000   0.98972994     18.515631      117.48322    
    445000   0.98696289     18.959225      117.37779    
    446000   0.94792719     18.314631      117.35987    
    447000   0.96085602     18.460042      117.22392    
    448000   0.98339981     18.520562      117.10122    
    449000   1.0093375      19.068999      116.80752    
    450000   1.0653213      18.633959      116.68488    
    451000   1.0081142      18.963511      116.65622    
    452000   0.94927181     19.007554      116.76482    
    453000   0.99864457     18.395234      116.54849    
    454000   1.0311393      18.579851      116.41002    
    455000   1.0139426      18.710052      116.30504    
    456000   1.0251868      18.581091      116.40163    
    457000   1.0070969      19.076356      116.29258    
    458000   0.99645526     18.8227        116.35064    
    459000   1.0106587      18.723647      116.20041    
    460000   1.0268768      18.218569      116.15558    
    461000   0.99034749     18.637326      116.03809    
    462000   0.98573151     18.869042      115.9742     
    463000   0.9794748      18.814264      115.90823    
    464000   1.003943       18.523455      115.89446    
    465000   0.99577515     18.23771       115.87751    
    466000   0.98263859     19.218301      115.81013    
    467000   1.0024506      18.238177      115.67303    
    468000   0.97501129     18.499334      115.68363    
    469000   0.9712962      18.691236      115.50153    
    470000   1.0177142      19.034745      115.36917    
    471000   1.0331744      18.666613      115.08362    
    472000   0.99293363     19.039345      115.13303    
    473000   1.0512626      18.665326      114.95717    
    474000   0.99268896     18.505551      114.73648    
    475000   1.0154839      18.700661      114.67342    
    476000   0.99203336     18.969184      114.62135    
    477000   0.99502665     18.326432      114.44261    
    478000   1.0051895      18.642115      114.34164    
    479000   1.003658       18.759713      114.3044     
    480000   0.98146311     19.086463      114.17891    
    481000   1.0139578      18.530738      114.27459    
    482000   0.95859451     18.669268      114.06679    
    483000   1.0157105      18.399217      113.97136    
    484000   0.99440299     18.62087       114.14972    
    485000   0.92869169     18.550828      113.88666    
    486000   0.99870621     19.140664      114.01789    
    487000   1.029354       18.84617       114.03397    
    488000   1.028712       18.749039      113.92889    
    489000   0.9802257      18.581185      113.90659    
    490000   0.99768143     18.273252      113.65765    
    491000   0.99001239     18.881741      113.51219    
    492000   1.0077965      19.071101      113.43614    
    493000   0.99749333     18.829424      113.29261    
    494000   1.0034063      18.714259      113.36514    
    495000   1.0140314      18.591352      113.26551    
    496000   1.0303155      19.283996      113.00612    
    497000   0.97065353     18.797643      113.05911    
    498000   1.0049464      19.215296      112.95653    
    499000   1.0061317      18.12951       112.68004    
    500000   1.021782       18.692372      112.65972    
    501000   1.0047577      18.723894      112.52044    
    502000   1.0351367      18.78416       112.40687    
    503000   1.0419455      19.004228      112.28409    
    504000   1.004107       18.076475      112.21169    
    505000   1.0375854      18.859086      112.14882    
    506000   1.0207751      18.903174      111.98557    
    507000   0.97694273     18.415115      111.70922    
    508000   1.0025903      18.548951      111.6201     
    509000   1.0241882      18.686504      111.52833    
    510000   0.97928362     18.741588      111.49083    
    511000   0.99753129     18.414388      111.07873    
    512000   0.97340572     18.667849      110.8152     
    513000   1.0078404      18.981333      110.84846    
    514000   1.0017182      18.73647       110.85605    
    515000   1.0410514      18.601273      110.99997    
    516000   1.022511       18.93098       110.89692    
    517000   0.98032202     18.397044      110.85523    
    518000   0.9983319      18.834233      110.88486    
    519000   0.98704377     18.348965      110.61796    
    520000   1.0162073      18.893475      110.40136    
    521000   0.96800089     18.697792      110.3268     
    522000   1.0252454      18.773115      110.23497    
    523000   0.96543336     17.860844      110.20394    
    524000   1.0188756      18.3171        109.95732    
    525000   1.0613627      18.960614      109.68992    
    526000   1.0023027      18.378961      109.40976    
    527000   0.99889535     18.59255       109.51041    
    528000   0.97343718     18.329664      109.39559    
    529000   0.97766262     18.637263      109.25745    
    530000   1.0218429      18.334981      109.0034     
    531000   1.0084426      18.648955      109.18922    
    532000   1.0001822      18.794854      109.16845    
    533000   1.0057438      18.646276      109.17074    
    534000   1.0181818      18.331117      109.07917    
    535000   0.98775666     18.192058      108.99979    
    536000   1.0264683      18.860293      108.92561    
    537000   0.99728988     17.740878      108.69015    
    538000   1.0052549      18.821028      108.61004    
    539000   0.99064578     18.333226      108.41152    
    540000   0.9658091      18.953517      108.12959    
    541000   1.0115375      18.462457      107.9457     
    542000   0.99347347     18.715593      108.03422    
    543000   1.0514723      18.822292      107.69336    
    544000   1.0034298      18.05628       107.48242    
    545000   1.0134772      18.782086      107.23333    
    546000   0.97642405     18.675128      107.05376    
    547000   0.96180924     18.568282      107.02003    
    548000   1.0139527      18.598823      106.83401    
    549000   1.0285189      18.683394      106.84433    
    550000   0.97270343     18.225126      106.65588    
    551000   1.0394239      18.635211      106.42288    
    552000   0.94678734     18.563227      106.35053    
    553000   0.97937322     18.498424      106.04953    
    554000   1.0086267      18.42911       105.8413     
    555000   1.0013872      18.598962      105.78119    
    556000   0.97477869     18.261273      105.58242    
    557000   1.0040019      18.345665      105.57166    
    558000   0.93901348     18.633934      105.48835    
    559000   0.98238832     18.598458      105.52554    
    560000   1.0013084      18.478451      105.25187    
    561000   1.0095206      18.937708      105.32441    
    562000   0.96161664     18.328854      105.12729    
    563000   1.0285024      18.60818       105.07428    
    564000   0.96280022     18.023517      105.11295    
    565000   1.0092214      18.364122      104.82686    
    566000   1.0225935      18.302865      104.7479     
    567000   1.0442395      18.700653      104.55276    
    568000   1.0002489      18.670813      104.42413    
    569000   1.0207506      18.976844      104.41707    
    570000   0.98865728     18.358747      104.2254     
    571000   1.0439053      18.646852      103.95992    
    572000   0.9786292      18.621132      103.91422    
    573000   0.97554275     18.834731      103.91229    
    574000   0.95506166     18.790384      103.63694    
    575000   1.032733       18.55774       103.55084    
    576000   1.0020193      18.757492      103.57206    
    577000   1.0126458      18.116803      103.28385    
    578000   1.0101822      18.407631      102.97836    
    579000   1.049878       18.574702      102.71768    
    580000   1.0409443      18.139332      102.67965    
    581000   0.95973666     18.518902      102.29552    
    582000   1.0206448      19.031403      102.295      
    583000   1.0496387      18.455627      101.99935    
    584000   1.0329501      18.170558      101.94563    
    585000   1.0275663      17.969072      101.90862    
    586000   1.0122125      18.294996      101.73443    
    587000   0.98891789     18.214291      101.32184    
    588000   1.062963       18.238779      101.27761    
    589000   0.97376256     18.416557      100.96996    
    590000   1.009467       18.161162      100.84842    
    591000   0.99260102     18.031412      100.80004    
    592000   0.99461903     18.345059      100.49488    
    593000   0.97835459     18.256359      100.44949    
    594000   1.0402395      18.441583      100.18812    
    595000   1.0088196      18.781481      100.21331    
    596000   1.0359472      18.236368      99.964658    
    597000   1.0006725      18.308767      99.993957    
    598000   1.0130464      18.736317      99.732913    
    599000   1.0318576      17.950955      99.45142     
    600000   1.0139592      18.654039      99.228473    
    601000   1.0326011      18.452905      99.308705    
    602000   0.9869105      18.383056      99.031895    
    603000   1.0246851      18.246482      98.819346    
    604000   0.99627459     18.297458      98.800946    
    605000   1.0205552      18.280844      98.66999     
    606000   0.99744167     18.514357      98.651116    
    607000   0.9748022      18.198316      98.373697    
    608000   0.98010823     18.845837      98.311449    
    609000   1.0493229      18.694156      98.142231    
    610000   0.96271538     18.699442      97.781766    
    611000   0.98619125     18.182391      98.047044    
    612000   0.9687489      18.251938      98.03115     
    613000   1.0000571      18.764517      97.923128    
    614000   1.0519038      19.027825      97.887122    
    615000   0.99581601     18.784899      97.623218    
    616000   1.0160383      18.529436      97.351233    
    617000   1.0313246      18.852912      97.557351    
    618000   0.98340996     18.229891      97.335844    
    619000   0.98849377     18.152289      97.240701    
    620000   1.0343919      18.571215      97.220013    
    621000   1.0030697      18.871142      96.980434    
    622000   1.0154071      18.5064        96.829183    
    623000   1.010453       18.112018      96.882265    
    624000   0.98499023     18.618114      96.833088    
    625000   0.9778452      18.192157      96.48352     
    626000   0.99065806     18.156497      96.335055    
    627000   1.0551204      18.671111      96.448323    
    628000   1.0098382      18.72212       96.485869    
    629000   0.9958566      17.938425      96.411306    
    630000   1.0071447      18.819554      96.369351    
    631000   0.99041723     18.300944      96.302354    
    632000   1.007072       18.13653       96.136737    
    633000   1.0226883      18.902504      96.037572    
    634000   0.97993231     18.281844      95.995775    
    635000   0.99410707     18.509904      95.987559    
    636000   0.99410019     17.973185      95.830774    
    637000   1.0156814      18.800391      95.749414    
    638000   0.95762263     18.514801      95.603705    
    639000   1.0364764      19.198172      95.322288    
    640000   0.99837039     18.107519      95.247181    
    641000   1.0005146      18.861745      95.146685    
    642000   0.98428684     18.367088      95.013191    
    643000   0.98269705     18.174006      94.920301    
    644000   0.99607372     18.300216      94.988483    
    645000   1.0208113      18.801171      94.825178    
    646000   0.99842226     18.195233      94.466509    
    647000   0.9860726      18.403822      94.540896    
    648000   1.0088675      18.032041      94.329128    
    649000   1.0352752      18.526978      94.156929    
    650000   1.0091236      18.318585      94.021647    
    651000   0.97165371     18.321039      93.9891      
    652000   0.9896427      18.293894      93.806475    
    653000   1.0502546      18.334251      93.807864    
    654000   1.0130395      18.324445      93.690336    
    655000   0.99285881     18.828796      93.539416    
    656000   0.99937065     18.314747      93.667968    
    657000   0.99534369     18.280072      93.574467    
    658000   1.0189161      18.687202      93.699819    
    659000   0.9880818      18.177753      93.646213    
    660000   1.0226382      18.308471      93.585487    
    661000   0.99151478     17.986803      93.590427    
    662000   0.99611192     18.242637      93.203978    
    663000   0.97118709     18.382097      93.026599    
    664000   0.99984967     18.095866      93.054575    
    665000   1.0484996      18.425691      93.065387    
    666000   0.98775569     18.592005      92.998331    
    667000   1.0439309      18.472819      92.625333    
    668000   1.018817       18.077251      92.621336    
    669000   0.99047509     18.204391      92.447798    
    670000   1.0358538      18.777494      92.46413     
    671000   1.0151346      18.550079      92.553432    
    672000   0.99073731     18.738748      92.281645    
    673000   0.97643032     18.545728      92.277395    
    674000   0.98216775     18.177521      92.14862     
    675000   0.9880688      17.9777        92.095824    
    676000   0.9666038      17.95182       92.123642    
    677000   0.99922884     17.777254      92.231781    
    678000   0.95890028     18.355711      92.155152    
    679000   0.98166936     17.924963      92.251739    
    680000   1.0062833      18.083133      92.248868    
    681000   0.97320308     18.248555      92.152401    
    682000   1.0024732      18.497556      92.229193    
    683000   1.009381       18.125489      92.141232    
    684000   1.0062241      18.447323      92.151082    
    685000   0.99020363     18.240599      91.904328    
    686000   1.049341       18.680707      91.875956    
    687000   1.0243184      17.971252      91.928006    
    688000   0.96252293     18.461216      91.846074    
    689000   0.99015359     18.156077      91.846759    
    690000   0.98405999     18.011761      91.483463    
    691000   1.0082111      18.240947      91.121767    
    692000   1.0068095      18.252469      90.904889    
    693000   1.0133267      18.170241      90.649497    
    694000   1.0450556      18.753165      90.514799    
    695000   0.9921582      17.961936      90.371697    
    696000   0.98885901     18.530464      90.133801    
    697000   1.0052548      17.827079      89.92303     
    698000   1.0069         18.726129      89.821759    
    699000   1.0230163      18.445667      89.98305     
    700000   0.99034706     18.522837      90.169646    
    701000   0.98648018     18.300548      90.147451    
    702000   0.92069113     18.147754      89.820223    
    703000   0.9887131      18.527533      89.667183    
    704000   1.0347234      18.305073      89.534731    
    705000   1.0030506      18.307244      89.277251    
    706000   1.0124557      18.49925       89.06695     
    707000   0.91663363     18.018954      89.05082     
    708000   1.0157114      18.322116      88.925424    
    709000   1.0183795      18.312926      88.665799    
    710000   1.0019638      17.659603      88.665995    
    711000   0.99581608     17.96087       88.416795    
    712000   0.9689282      18.038367      88.349627    
    713000   0.98130351     18.856353      88.342914    
    714000   1.0183602      18.105291      88.378645    
    715000   0.96904568     17.785891      88.0415      
    716000   0.98658881     18.137993      87.885865    
    717000   1.0232627      18.684322      87.781678    
    718000   0.94702601     18.199228      87.33958     
    719000   1.0177171      18.3915        87.140211    
    720000   1.0125137      17.973052      87.091079    
    721000   0.97974444     18.096561      87.009126    
    722000   0.96991603     18.42916       86.835781    
    723000   0.98698798     18.329882      86.748867    
    724000   1.0167907      18.298551      86.591678    
    725000   1.0087819      18.659628      86.487093    
    726000   1.0150593      18.266089      86.422793    
    727000   1.0105717      18.383744      86.429363    
    728000   1.0132362      17.948576      86.358453    
    729000   0.98198903     18.367259      86.251197    
    730000   1.0080635      18.390512      85.943797    
    731000   0.97678366     18.058352      85.841425    
    732000   1.019052       18.372234      85.810748    
    733000   0.98134281     18.419328      86.048896    
    734000   0.98247106     18.36286       86.021181    
    735000   0.98714564     18.143425      85.9892      
    736000   0.98409415     18.01368       85.944066    
    737000   1.0115492      17.829016      85.889428    
    738000   1.0023367      17.756302      86.011705    
    739000   0.9899851      18.399767      85.848055    
    740000   0.97886046     18.407256      85.562879    
    741000   1.0302831      18.147991      85.691133    
    742000   0.9926398      17.898629      85.712544    
    743000   1.0714224      18.131346      85.592954    
    744000   0.96392248     18.067146      85.434023    
    745000   0.98446723     18.125144      85.348872    
    746000   1.0085868      18.465999      85.112056    
    747000   1.0475971      18.634805      85.057123    
    748000   0.99124984     18.830852      85.088816    
    749000   0.98766256     18.095434      85.204469    
    750000   1.0246872      18.364427      85.254881    
    751000   0.98033004     18.355873      85.086961    
    752000   1.0030669      18.722102      85.142706    
    753000   1.0063155      18.70869       85.086863    
    754000   0.99537642     18.110799      84.925831    
    755000   1.0026819      18.718068      84.991674    
    756000   0.96996052     18.109962      84.889609    
    757000   0.99118934     18.103043      84.637267    
    758000   1.0061663      18.124951      84.525343    
    759000   0.99382504     18.311437      84.268066    
    760000   0.99307673     17.888697      84.217763    
    761000   0.99707425     18.03965       84.021356    
    762000   1.0298946      18.34641       83.889784    
    763000   1.0129678      18.758332      83.836357    
    764000   1.0089596      18.426695      83.634793    
    765000   0.9838533      18.023927      83.627549    
    766000   0.99305251     18.361554      83.633947    
    767000   0.98393779     17.750332      83.526651    
    768000   1.0093333      18.187259      83.557637    
    769000   0.99646588     18.283871      83.483547    
    770000   1.022261       18.612876      83.527489    
    771000   0.98372223     17.91772       83.590836    
    772000   1.0251946      18.165188      83.571094    
    773000   1.0238972      18.467862      83.511344    
    774000   1.021952       17.791483      83.411824    
    775000   0.98630851     18.10002       83.414973    
    776000   0.9562996      18.07136       83.150815    
    777000   0.99304637     18.014043      83.146496    
    778000   0.99694221     18.375275      83.10452     
    779000   0.9227199      17.375433      83.124324    
    780000   0.98229962     17.950949      82.879618    
    781000   1.008458       18.687341      82.835129    
    782000   0.99715482     17.521249      82.663499    
    783000   1.0009613      17.887938      82.501713    
    784000   1.0459644      18.67901       82.470112    
    785000   0.97637446     18.233377      82.415721    
    786000   0.95152506     18.076612      82.306761    
    787000   1.018614       17.953589      82.110477    
    788000   1.0445894      18.392148      82.03853     
    789000   0.99916576     18.247102      81.853027    
    790000   0.98425974     17.876258      81.734716    
    791000   1.0083188      18.309673      81.6414      
    792000   0.9736548      17.853194      81.737159    
    793000   1.0168549      18.630442      81.558885    
    794000   1.0100593      18.083455      81.309553    
    795000   1.0478052      18.334342      81.231234    
    796000   1.005489       18.134774      81.315157    
    797000   0.99271934     18.223015      81.279157    
    798000   0.96124272     18.309846      81.167532    
    799000   1.0176782      17.740954      80.950838    
    800000   1.0313613      18.200399      80.884308    
    801000   1.0183493      18.265793      80.925915    
    802000   1.0088852      18.491438      80.838384    
    803000   1.0160375      18.521181      80.627291    
    804000   1.0149816      17.922425      80.438087    
    805000   0.99656228     18.068734      80.211441    
    806000   0.99971592     18.084274      80.265138    
    807000   0.99062215     17.603641      80.161036    
    808000   1.0404307      18.503606      80.176379    
    809000   1.0275738      17.808307      80.071255    
    810000   1.0016312      17.942529      79.739929    
    811000   0.98626106     17.943393      79.646678    
    812000   1.0273085      18.239088      79.504326    
    813000   0.96227879     17.676429      79.295207    
    814000   1.0145933      18.183104      79.222331    
    815000   1.0159803      18.259706      79.020338    
    816000   0.97515428     17.607138      78.951812    
    817000   0.95295042     17.965964      79.054116    
    818000   1.0172471      18.139776      78.790688    
    819000   1.0237832      18.574593      78.482142    
    820000   1.0271338      18.325221      78.44328     
    821000   1.0087236      18.450612      78.370926    
    822000   1.0312796      18.421087      78.387297    
    823000   1.0295089      18.37407       78.193832    
    824000   1.0113536      18.999202      78.130463    
    825000   0.9911319      17.564785      77.996478    
    826000   0.96473976     18.601206      77.792405    
    827000   1.0197648      18.305895      77.672238    
    828000   0.97370372     18.063063      77.610872    
    829000   0.96331066     17.85909       77.504119    
    830000   1.0128723      18.135673      77.38197     
    831000   1.0273553      17.906152      77.404556    
    832000   0.96079253     17.970353      77.409111    
    833000   1.0150556      18.426549      77.325731    
    834000   0.98676061     18.441748      77.226562    
    835000   0.99174814     17.985716      77.166009    
    836000   1.0131412      18.145728      76.913437    
    837000   0.9934027      18.062044      76.979641    
    838000   1.0375306      18.345535      77.058742    
    839000   1.0266281      18.152846      76.797121    
    840000   1.013707       18.513621      76.73539     
    841000   1.0092651      18.498684      76.317678    
    842000   1.0135357      18.021348      76.050163    
    843000   1.0026839      17.779781      75.92737     
    844000   0.99177598     18.600352      75.749228    
    845000   0.99288908     17.839472      75.746453    
    846000   0.9639634      17.756034      75.451227    
    847000   0.97953885     18.072545      75.449875    
    848000   0.97256233     17.823748      75.33509     
    849000   0.99044086     18.099198      75.300148    
    850000   1.0003077      18.018849      74.846077    
    851000   0.99407767     18.061415      75.053588    
    852000   0.99987486     18.191618      74.92446     
    853000   0.98422294     17.667871      74.802537    
    854000   1.0270921      18.384892      74.794086    
    855000   1.0250146      18.050632      74.816255    
    856000   1.0123894      17.78533       74.799708    
    857000   0.98126552     17.633184      74.692735    
    858000   1.0106295      17.871392      74.448897    
    859000   1.0343036      18.598854      74.432188    
    860000   1.0274909      18.396189      74.573552    
    861000   0.99546569     18.091336      74.320092    
    862000   0.99965223     18.456361      74.329236    
    863000   0.95842645     18.128821      73.962418    
    864000   0.98158        18.048664      73.926088    
    865000   0.98856651     17.25003       73.997564    
    866000   0.99624439     18.040314      73.956723    
    867000   1.0050684      18.278082      74.139043    
    868000   0.96900329     18.032569      73.732977    
    869000   0.97330878     17.920946      73.468404    
    870000   0.9870717      18.15313       73.318928    
    871000   1.0394312      18.462586      73.168391    
    872000   1.0237563      18.253279      72.996611    
    873000   1.0048486      18.107956      72.768045    
    874000   0.9859519      17.985686      72.946731    
    875000   0.97062337     17.845216      73.060616    
    876000   0.98827499     17.997828      73.041367    
    877000   0.96888813     18.022089      73.057148    
    878000   0.97671992     18.455304      73.099181    
    879000   0.99476382     18.28171       73.065597    
    880000   1.0059488      18.661625      72.887622    
    881000   1.0424464      17.856554      72.566181    
    882000   1.0341193      18.051198      72.557549    
    883000   1.0181189      18.396404      72.351867    
    884000   1.0024608      18.003859      72.301672    
    885000   0.99546509     18.162882      72.232591    
    886000   0.97976426     18.20832       72.023226    
    887000   0.9934776      18.070057      71.922478    
    888000   0.97927132     17.978743      71.721224    
    889000   0.98328948     17.594711      71.634093    
    890000   1.0475189      18.474193      71.517999    
    891000   1.0044293      18.159917      71.646558    
    892000   1.0068825      18.086846      71.671639    
    893000   1.0089308      18.394197      71.79252     
    894000   1.0179829      18.160918      71.574852    
    895000   0.96957763     18.012982      71.407276    
    896000   1.0291574      18.445638      71.392948    
    897000   1.0108124      17.54695       71.407322    
    898000   1.0156185      17.654972      71.260544    
    899000   0.9793717      17.56733       71.123232    
    900000   0.99874584     17.680614      71.157946    
    901000   0.98792378     18.404319      70.835487    
    902000   0.9789443      17.860306      70.740286    
    903000   1.0249934      17.83222       70.584914    
    904000   1.061568       18.498954      70.703755    
    905000   0.98531699     18.16965       70.661247    
    906000   1.0055269      17.660162      70.763517    
    907000   0.98805498     18.179399      70.803815    
    908000   0.97100279     18.029396      70.745961    
    909000   1.0169924      18.139644      70.358246    
    910000   0.97008812     17.996959      70.106041    
    911000   0.99604457     17.88244       69.991922    
    912000   0.99987252     17.969296      70.080525    
    913000   1.0056632      17.970515      69.819977    
    914000   1.0064397      18.5013        69.734692    
    915000   0.96737932     18.041916      69.686437    
    916000   1.0288837      18.201782      69.599113    
    917000   0.97426303     18.13464       69.389622    
    918000   0.96705758     17.779189      69.116742    
    919000   0.97934728     18.193691      69.06473     
    920000   1.0065927      17.870484      68.86319     
    921000   0.97758283     17.825384      68.916758    
    922000   0.99083545     18.239804      68.968048    
    923000   0.98215039     18.37763       68.804294    
    924000   0.95616657     18.455095      68.934384    
    925000   0.99917666     18.272123      68.679311    
    926000   1.0190765      17.951003      68.542968    
    927000   0.99520313     18.200599      68.470969    
    928000   1.0004436      17.871716      68.168198    
    929000   0.9861143      17.937889      67.991383    
    930000   0.95436462     17.705639      67.864756    
    931000   0.95512129     17.722745      67.96652     
    932000   0.992466       18.260968      67.895503    
    933000   0.97144321     18.050043      67.875061    
    934000   0.99769507     18.119606      67.874764    
    935000   0.99454177     17.989767      67.541083    
    936000   0.9724267      17.801516      67.578681    
    937000   0.98708582     17.781556      67.455592    
    938000   1.0659152      18.276493      67.179943    
    939000   1.0157453      17.650896      67.294953    
    940000   0.98994892     18.33378       67.440357    
    941000   1.0239732      18.050069      67.410984    
    942000   0.98062698     17.837419      67.306015    
    943000   1.053735       18.508875      67.121686    
    944000   1.0100064      18.085018      67.067073    
    945000   1.0255163      18.420664      66.975072    
    946000   1.0410954      17.972033      66.880935    
    947000   1.0370007      18.440948      66.864728    
    948000   1.0058997      17.944951      66.791938    
    949000   1.0037441      18.158843      66.793291    
    950000   1.0077151      17.999728      66.826055    
    951000   1.0523793      17.919413      66.572838    
    952000   0.97191596     18.263371      66.795056    
    953000   0.98783233     18.301418      66.621218    
    954000   1.0170584      17.964101      66.594916    
    955000   1.0186994      18.514784      66.67692     
    956000   0.99158455     17.794476      66.719363    
    957000   1.0076133      18.359619      66.608415    
    958000   1.0045227      18.246985      66.410156    
    959000   0.98982092     17.454395      66.322098    
    960000   0.97807584     17.639985      66.207611    
    961000   0.97421422     17.695007      66.096783    
    962000   1.0002905      18.113475      66.058225    
    963000   0.99786157     18.064943      66.163538    
    964000   1.0016553      17.979044      66.152667    
    965000   0.98687588     17.794534      65.946523    
    966000   0.98539064     18.072708      65.951978    
    967000   1.0167126      18.105371      65.962622    
    968000   0.9982824      18.072625      65.811731    
    969000   1.019057       17.857547      65.657159    
    970000   0.99693961     18.019143      65.383231    
    971000   1.0101202      18.222556      65.315021    
    972000   1.0227772      17.7073        65.348803    
    973000   0.99668564     17.782188      65.248693    
    974000   1.0098005      18.15604       65.254261    
    975000   1.0183547      18.151647      65.190081    
    976000   0.98935515     17.394864      65.337398    
    977000   1.0634826      18.015511      65.352342    
    978000   1.0314535      17.998787      65.125579    
    979000   1.0173211      18.359197      64.973903    
    980000   1.034761       17.753891      64.911358    
    981000   0.96178961     17.820425      64.767784    
    982000   1.0515225      17.795731      64.786652    
    983000   0.97317342     18.460534      64.675557    
    984000   1.00461        17.541449      64.695603    
    985000   1.0162209      17.634573      64.433232    
    986000   0.96706637     18.23102       64.343794    
    987000   1.0111904      17.834354      63.908907    
    988000   1.0289193      17.989261      63.928574    
    989000   1.000505       17.875167      63.900703    
    990000   0.99462055     18.024665      63.908831    
    991000   1.0026229      17.870849      63.907853    
    992000   0.96230838     17.935495      63.947195    
    993000   1.0189352      17.573042      64.091801    
    994000   1.0035478      18.187977      63.945845    
    995000   0.98386339     17.173113      63.780415    
    996000   1.0286977      17.503289      63.624515    
    997000   0.95883001     17.279753      63.293857    
    998000   1.0085959      17.994627      63.324316    
    999000   1.0047453      17.871595      63.213585    
   1000000   0.99364118     17.532805      63.11579     
   1001000   1.0645407      17.743754      63.176435    
   1002000   1.0226585      18.302399      62.979821    
   1003000   1.0530318      18.512605      62.907215    
   1004000   1.0087631      18.214803      62.750203    
   1005000   1.005261       17.713901      62.548038    
   1006000   1.0342514      17.709028      62.535475    
   1007000   0.9921384      18.589533      62.506114    
   1008000   0.97907103     17.515987      62.342299    
   1009000   1.031748       18.614519      62.322546    
   1010000   0.99913715     17.798578      62.236546    
   1011000   1.0072265      17.870675      62.451868    
   1012000   1.000066       17.470731      62.320577    
   1013000   0.99500699     17.401863      62.247724    
   1014000   1.0416659      17.820121      62.21334     
   1015000   0.99347094     18.162256      61.952556    
   1016000   0.98119971     17.452411      61.803647    
   1017000   0.97424931     18.076551      61.79135     
   1018000   0.98985478     17.951272      61.385267    
   1019000   1.0064905      17.900904      61.248121    
   1020000   1.0056488      17.57928       61.40095     
   1021000   0.97139897     18.324628      61.304376    
   1022000   0.97890643     17.639491      61.006855    
   1023000   1.0013733      17.974471      61.069504    
   1024000   0.98534179     17.460755      61.01166     
   1025000   0.99231598     17.751762      60.828278    
   1026000   1.0383278      18.050128      60.636971    
   1027000   0.97649293     18.255698      60.448559    
   1028000   1.0472357      17.847518      60.491081    
   1029000   1.0182574      18.102252      60.428693    
   1030000   0.99293583     17.933428      60.219006    
   1031000   0.99167795     17.946731      60.274385    
   1032000   1.0325305      17.855012      60.278214    
   1033000   0.99927873     18.079527      60.202762    
   1034000   0.98199662     17.537879      60.265161    
   1035000   1.0096235      18.027995      60.108245    
   1036000   1.0085217      17.59397       59.970633    
   1037000   0.99522018     18.154412      59.8958      
   1038000   0.98173213     17.938532      59.813808    
   1039000   0.98830645     17.931468      59.907126    
   1040000   1.0112048      17.547975      59.949321    
   1041000   0.97957678     17.691716      59.877147    
   1042000   1.0292173      18.040495      59.737218    
   1043000   0.95068405     17.710284      59.656829    
   1044000   0.96596829     17.433137      59.668268    
   1045000   1.0216014      17.743472      59.731384    
   1046000   0.99997026     17.94977       59.562556    
   1047000   0.99509727     17.821967      59.447924    
   1048000   1.0324117      17.908649      59.415891    
   1049000   1.0022325      17.754054      59.396256    
   1050000   1.0003771      17.956115      59.555519    
   1051000   0.94629501     17.252947      59.561409    
   1052000   1.0045174      17.588946      59.456408    
   1053000   0.97751053     17.40921       59.449094    
   1054000   0.97833026     18.231107      59.319115    
   1055000   1.0185656      17.890474      59.329967    
   1056000   1.0063665      18.918817      59.450931    
   1057000   1.0047497      17.570471      59.540991    
   1058000   1.0116994      17.821978      59.528901    
   1059000   0.97108281     17.60581       59.503253    
   1060000   0.99550253     18.030231      59.26425     
   1061000   1.0042894      17.826632      59.171937    
   1062000   0.98323422     17.421304      58.988112    
   1063000   1.0174886      17.519358      58.768033    
   1064000   1.001634       17.77707       58.677285    
   1065000   1.0126857      17.235725      58.50063     
   1066000   0.98353725     18.218253      58.429907    
   1067000   1.0455922      17.38347       58.414322    
   1068000   0.98809817     17.796459      58.374526    
   1069000   1.0057837      17.642695      58.496934    
   1070000   1.0062838      17.949766      58.426319    
   1071000   1.0187237      17.315772      58.252223    
   1072000   1.0281079      18.186794      57.98896     
   1073000   0.98676737     17.671275      57.748219    
   1074000   1.0650717      18.020152      57.443807    
   1075000   0.98333381     17.993146      57.29615     
   1076000   0.99579102     17.858363      57.438398    
   1077000   0.9869515      17.258615      57.297979    
   1078000   0.98747848     18.277292      57.273119    
   1079000   1.0118081      17.438588      57.100235    
   1080000   1.0124085      17.941261      57.137302    
   1081000   0.97960957     17.812301      56.948331    
   1082000   1.0149532      17.815714      56.867146    
   1083000   1.016099       18.072773      56.663837    
   1084000   1.007007       17.903465      56.735993    
   1085000   1.0153152      17.719558      56.471544    
   1086000   0.98969577     17.656531      56.486786    
   1087000   1.0343872      17.870317      56.110197    
   1088000   1.0409612      17.971759      55.974885    
   1089000   1.0088325      17.738337      55.851481    
   1090000   0.98689499     17.797459      55.696774    
   1091000   0.94911008     17.692759      55.563617    
   1092000   0.98949593     17.27229       55.481527    
   1093000   1.0622358      17.420427      55.446751    
   1094000   0.97070568     18.104461      55.504901    
   1095000   1.0062451      18.08457       55.170581    
   1096000   0.97761191     17.695551      55.175023    
   1097000   0.99994572     17.328733      55.175111    
   1098000   0.99636523     17.092113      55.312543    
   1099000   0.98240081     18.081718      55.37213     
   1100000   1.0592866      18.386532      55.356572    
   1101000   1.0080849      17.643824      55.226714    
   1102000   1.0011571      17.831182      55.021293    
   1103000   1.0159929      16.931033      54.947895    
   1104000   0.99769163     17.62055       54.984035    
   1105000   1.026477       17.836261      54.837594    
   1106000   1.0005206      17.299635      54.847188    
   1107000   1.0129309      17.482354      54.789235    
   1108000   1.0585005      17.383889      54.694552    
   1109000   1.0441714      18.394992      54.683345    
   1110000   0.97856107     17.6602        54.52117     
   1111000   0.99251083     18.285022      54.773755    
   1112000   1.021385       17.801914      54.527687    
   1113000   0.92824561     17.840799      54.479065    
   1114000   0.99003019     17.668303      54.456003    
   1115000   0.96388201     18.167125      54.338617    
   1116000   1.0234706      17.611712      54.313152    
   1117000   1.0297843      17.74861       54.112       
   1118000   0.96005042     18.016915      54.120134    
   1119000   0.99362863     17.375814      54.026902    
   1120000   0.98089749     17.490378      54.0332      
   1121000   1.030175       18.311467      54.046412    
   1122000   1.0166285      17.863001      53.812383    
   1123000   0.98050683     17.783032      53.497313    
   1124000   0.93395995     17.239684      53.732471    
   1125000   1.0187042      17.110704      53.585401    
   1126000   1.0461218      18.21922       53.537757    
   1127000   0.93816008     17.528972      53.551438    
   1128000   1.0093187      17.290014      53.829311    
   1129000   1.0357163      17.758503      53.97113     
   1130000   1.0388216      17.486693      53.906656    
   1131000   0.99465496     17.711655      53.849175    
   1132000   1.000507       17.611998      53.943507    
   1133000   1.0229108      17.913956      53.730908    
   1134000   1.0257899      17.974426      53.583652    
   1135000   0.9898933      17.351774      53.577263    
   1136000   1.0038621      17.438796      53.594127    
   1137000   0.96043973     17.498492      53.419279    
   1138000   0.96915055     18.18043       53.368074    
   1139000   1.0263124      18.445741      53.460012    
   1140000   0.95814503     17.881944      53.337316    
   1141000   1.0422743      17.788193      53.170328    
   1142000   1.0186027      17.808253      53.033988    
   1143000   0.98744031     17.270698      52.894299    
   1144000   1.0012315      18.070966      52.967524    
   1145000   1.0710427      17.591483      53.096365    
   1146000   1.0183607      18.172071      53.205903    
   1147000   0.97849767     17.60126       53.163132    
   1148000   1.0358712      18.113184      53.29545     
   1149000   1.0318755      17.91742       53.004999    
   1150000   1.0272947      17.90472       53.28535     
   1151000   0.95545082     17.634633      53.252268    
   1152000   0.97683395     18.02112       53.03671     
   1153000   1.0039593      17.673502      52.913774    
   1154000   1.0060409      17.592068      53.063014    
   1155000   0.96087157     17.62737       53.017818    
   1156000   1.0205183      17.706521      52.745853    
   1157000   1.0299928      17.715377      52.477834    
   1158000   1.0249759      18.060155      52.394406    
   1159000   1.0338364      17.765643      52.154307    
   1160000   1.0142537      18.133009      52.180815    
   1161000   1.0088336      17.947689      52.066208    
   1162000   1.0149847      17.757014      51.975967    
   1163000   0.94920213     17.612433      51.76985     
   1164000   1.0297276      17.750932      51.595943    
   1165000   0.9995245      18.278175      51.493647    
   1166000   1.0329914      18.023443      51.207149    
   1167000   1.0126124      17.454559      51.322294    
   1168000   0.97281506     17.714895      51.2183      
   1169000   0.98346825     17.948398      51.120495    
   1170000   1.0345851      17.622459      51.25568     
   1171000   0.97708291     17.860441      50.839499    
   1172000   1.0164898      18.418208      50.835678    
   1173000   1.0177626      17.80831       50.648446    
   1174000   1.036896       18.370659      50.629943    
   1175000   1.0297462      17.648071      50.652334    
   1176000   1.003726       17.746185      50.697431    
   1177000   0.96587051     16.882017      50.474378    
   1178000   0.97434734     17.516055      50.445777    
   1179000   0.97557896     17.21118       50.439392    
   1180000   0.98665797     17.813447      50.247998    
   1181000   1.0029605      17.373949      50.164833    
   1182000   0.99001348     17.195207      50.127812    
   1183000   1.0238561      17.407636      50.301821    
   1184000   1.0342677      18.004936      50.034289    
   1185000   0.99488461     17.496133      49.806977    
   1186000   1.0554779      17.668642      49.799833    
   1187000   0.9862072      17.582273      49.882332    
   1188000   1.0172029      17.224444      50.101843    
   1189000   1.0315253      17.902585      49.900321    
   1190000   0.98404371     17.274984      49.83659     
   1191000   0.98978216     17.235957      49.635425    
   1192000   0.9902332      18.00137       49.664921    
   1193000   1.0255068      17.582223      49.523433    
   1194000   1.0136305      17.405382      49.498792    
   1195000   1.0367221      17.759544      49.414973    
   1196000   1.0184061      17.449268      49.440937    
   1197000   0.99163082     17.519599      49.262246    
   1198000   1.0398355      17.395417      48.919883    
   1199000   1.0054841      17.787196      48.921387    
   1200000   0.98612132     17.257905      48.767202    
   1201000   1.0284428      17.692594      48.525621    
   1202000   0.97501995     17.408505      48.521919    
   1203000   1.0039454      17.714984      48.310052    
   1204000   0.99851553     17.052144      48.103838    
   1205000   0.98603998     17.146902      48.206961    
   1206000   0.95956401     18.125918      48.096645    
   1207000   0.97553214     17.870205      48.161642    
   1208000   1.0464676      18.40796       47.978794    
   1209000   1.0034344      17.9227        47.686131    
   1210000   1.0140965      17.317273      47.501799    
   1211000   0.98971975     17.672094      47.310545    
   1212000   1.0102517      17.630596      47.054969    
   1213000   1.0205757      18.260524      46.835417    
   1214000   0.96762734     17.598322      46.732095    
   1215000   0.99133886     17.672151      46.412861    
   1216000   0.96062552     17.601918      46.428987    
   1217000   1.0324012      17.71996       46.524464    
   1218000   0.98448504     17.299049      46.582134    
   1219000   1.0271064      18.120597      46.440355    
   1220000   0.94861672     17.324795      46.122306    
   1221000   0.9692101      17.404002      45.807354    
   1222000   1.0339565      17.800461      45.780647    
   1223000   0.98966424     17.781699      45.661547    
   1224000   0.98447988     17.884107      45.667606    
   1225000   1.0231258      17.445108      45.644866    
   1226000   1.010013       18.299111      45.622642    
   1227000   0.96263216     17.635624      45.520326    
   1228000   0.97550993     17.658862      45.383533    
   1229000   1.0101761      17.453614      45.424531    
   1230000   0.9982243      18.109376      45.39286     
   1231000   0.97762823     18.056845      45.266388    
   1232000   1.0105662      17.836341      45.126453    
   1233000   1.0038702      18.382428      44.967871    
   1234000   1.0279605      17.247464      45.102651    
   1235000   0.98948395     18.058228      44.994998    
   1236000   0.97381579     17.828491      44.91482     
   1237000   0.98442219     18.14745       44.877412    
   1238000   0.99304429     18.723751      44.841498    
   1239000   0.97792083     17.664759      44.694989    
   1240000   0.97864847     17.510498      44.727376    
   1241000   0.99119369     17.414424      44.755708    
   1242000   1.0235253      17.671259      44.723332    
   1243000   1.002703       17.79768       44.436906    
   1244000   1.020809       17.641215      44.13207     
   1245000   1.0374486      17.574451      44.081561    
   1246000   0.99140771     17.290791      43.856125    
   1247000   1.0249431      17.831588      43.630111    
   1248000   0.97286444     17.457055      43.751812    
   1249000   1.0022326      18.215654      43.984892    
   1250000   0.970324       17.375878      43.88787     
   1251000   0.97102728     17.453683      44.107135    
   1252000   0.98150195     17.688941      44.213058    
   1253000   0.98222748     17.090759      44.116224    
   1254000   1.0350014      17.882869      44.044135    
   1255000   1.0150976      17.954676      43.943776    
   1256000   1.0470393      17.659101      43.867091    
   1257000   0.97067806     17.216254      43.986751    
   1258000   1.0012378      17.586641      43.967122    
   1259000   1.0113689      17.955795      43.678156    
   1260000   0.9717453      17.605327      43.85628     
   1261000   1.0253388      17.431352      43.794584    
   1262000   1.0047358      17.817095      43.622689    
   1263000   1.031747       18.480595      43.802282    
   1264000   0.97125166     17.253034      43.855351    
   1265000   1.0104515      17.923055      43.88947     
   1266000   0.97286512     17.837301      43.706187    
   1267000   1.0089197      17.551098      43.505922    
   1268000   0.99234335     17.57312       43.532878    
   1269000   1.0259228      17.124658      43.25045     
   1270000   1.0240478      17.747391      43.226171    
   1271000   0.98918632     17.649427      43.146343    
   1272000   1.0194021      17.972919      43.094461    
   1273000   1.0459619      18.172422      42.992846    
   1274000   1.0308762      17.442974      42.903305    
   1275000   0.98937578     17.744153      42.989241    
   1276000   1.0006929      18.138801      42.860199    
   1277000   0.98624901     17.349725      43.133103    
   1278000   1.0221533      17.968438      43.0436      
   1279000   0.96448118     17.715857      43.082484    
   1280000   0.99246777     17.541305      43.062851    
   1281000   0.99212588     17.760695      43.19801     
   1282000   1.0164282      18.318966      43.276032    
   1283000   1.0439508      17.247207      43.235157    
   1284000   1.0130815      17.605895      43.468005    
   1285000   0.98854333     18.050471      43.321014    
   1286000   0.9936093      17.651713      43.084482    
   1287000   1.0254823      17.967925      43.01016     
   1288000   1.0223222      17.953654      42.9028      
   1289000   1.0098746      17.873478      42.907781    
   1290000   1.0388529      17.586688      43.007867    
   1291000   0.98068229     17.296161      42.837238    
   1292000   0.99887546     17.490507      42.736541    
   1293000   1.0037111      17.537939      42.383688    
   1294000   0.99184427     17.351992      42.348202    
   1295000   0.99163318     17.330266      41.940745    
   1296000   1.0764907      17.58009       41.772827    
   1297000   1.040548       17.548493      41.827227    
   1298000   0.96344814     17.341316      41.742679    
   1299000   0.96506317     17.992965      41.423831    
   1300000   0.96485881     17.451805      41.38818     
   1301000   0.96642339     17.398581      41.121788    
   1302000   0.97503238     17.627828      40.930228    
   1303000   0.93716917     17.053478      40.740543    
   1304000   1.0221825      17.682461      40.573479    
   1305000   1.0159392      18.033884      40.634055    
   1306000   0.97155448     16.942341      40.457624    
   1307000   0.99510328     17.23694       40.276803    
   1308000   1.0414501      18.014621      40.145199    
   1309000   1.0474703      18.054355      39.906975    
   1310000   0.99066602     17.742743      39.854371    
   1311000   1.02682        17.30928       39.768959    
   1312000   0.98502566     17.611665      39.583643    
   1313000   1.0002902      17.726589      39.506661    
   1314000   0.9845857      17.283263      39.277802    
   1315000   1.0302404      17.616484      39.452538    
   1316000   0.98705        16.953764      39.612099    
   1317000   0.98398385     17.21174       39.589902    
   1318000   1.0208857      18.073542      39.242728    
   1319000   0.96430167     17.503412      39.076777    
   1320000   0.99897641     17.418439      38.800984    
   1321000   1.0065181      17.656089      38.497464    
   1322000   1.0108535      17.140255      38.226746    
   1323000   0.98709728     17.557071      38.131247    
   1324000   1.0302518      17.686135      38.176494    
   1325000   0.94535934     17.199345      38.116524    
   1326000   1.0265915      17.534284      37.874317    
   1327000   1.0253259      17.556468      37.917608    
   1328000   1.0031464      17.370916      37.768682    
   1329000   1.0246542      17.333587      37.854728    
   1330000   0.9517697      16.691532      37.827119    
   1331000   1.0126559      17.645575      37.740172    
   1332000   1.032466       17.586845      37.443061    
   1333000   1.0487543      17.562741      37.553372    
   1334000   1.008188       17.64204       37.559376    
   1335000   1.0067609      17.011505      37.48669     
   1336000   0.96149313     17.371363      37.431333    
   1337000   0.9918926      17.556014      37.397716    
   1338000   0.93378606     17.323411      37.090581    
   1339000   1.0536939      17.567314      36.799888    
   1340000   1.0315314      17.426708      36.716497    
   1341000   1.0111493      17.91011       36.851194    
   1342000   1.0348968      17.544237      36.522237    
   1343000   1.0261859      16.958821      36.779318    
   1344000   1.0060806      17.720328      36.620244    
   1345000   0.99307857     17.24647       36.476395    
   1346000   1.0262557      17.601578      36.615041    
   1347000   1.0039315      17.711069      36.403097    
   1348000   0.96528004     17.514818      36.248228    
   1349000   1.0268817      18.07924       36.231549    
   1350000   1.0087168      17.880259      36.068753    
   1351000   1.0211042      17.355232      36.004473    
   1352000   1.0129399      16.913479      35.924668    
   1353000   0.97741826     17.108411      35.653674    
   1354000   1.0420304      17.566119      35.464768    
   1355000   1.0359732      17.257658      35.386579    
   1356000   0.95844167     17.276917      35.386651    
   1357000   1.0245993      17.500348      35.24042     
   1358000   1.019013       17.41168       35.447631    
   1359000   0.99961411     17.264334      35.462457    
   1360000   0.98576944     17.444106      35.379583    
   1361000   1.0270802      17.53337       35.438242    
   1362000   1.0126604      17.693149      35.178117    
   1363000   1.0117969      17.763533      35.105558    
   1364000   0.96874326     17.161326      35.165953    
   1365000   0.986867       17.369657      35.143789    
   1366000   1.049795       18.342628      35.088426    
   1367000   1.0041659      17.320963      34.913717    
   1368000   1.0235815      17.636972      34.739651    
   1369000   1.0439895      17.426898      34.308864    
   1370000   1.0159549      17.018717      34.190693    
   1371000   0.97921601     17.02163       34.070819    
   1372000   0.99367133     17.451512      34.244721    
   1373000   1.0170627      16.642138      34.229183    
   1374000   0.99211144     17.239658      34.197568    
   1375000   1.0249951      17.750919      34.131009    
   1376000   0.98150285     17.243361      34.072739    
   1377000   1.0041303      17.276405      33.662709    
   1378000   0.96733279     17.536782      33.445719    
   1379000   1.0266781      17.512101      33.379109    
   1380000   0.99475593     17.873553      33.234994    
   1381000   1.0109118      18.154534      33.124173    
   1382000   1.0079325      17.68619       32.889253    
   1383000   0.969574       17.13155       32.637229    
   1384000   0.9812299      17.442204      32.564392    
   1385000   0.99081977     17.420192      32.539525    
   1386000   1.0379918      17.427812      32.369864    
   1387000   1.014035       17.418067      32.301899    
   1388000   0.98096674     17.454229      32.224072    
   1389000   1.0541497      17.219403      32.187378    
   1390000   1.0042586      17.160333      31.88139     
   1391000   0.98913746     17.556167      31.862717    
   1392000   1.0294093      17.729594      31.961391    
   1393000   1.0107762      18.268596      31.616936    
   1394000   0.97357102     17.11671       31.395746    
   1395000   1.001898       17.427991      31.066325    
   1396000   1.0274899      17.464873      30.981794    
   1397000   0.98090874     17.443385      30.926741    
   1398000   1.0010706      16.975307      30.740335    
   1399000   1.0262593      17.34717       30.390924    
   1400000   1.0021423      17.786475      30.201215    
   1401000   0.98838562     16.910121      30.10697     
   1402000   1.0371416      16.729348      30.009243    
   1403000   1.0218872      17.36787       29.883013    
   1404000   1.0530146      17.814341      29.975696    
   1405000   1.0280703      17.371642      30.00483     
   1406000   0.98378577     17.655393      29.84753     
   1407000   1.0103282      17.332001      29.753876    
   1408000   0.98940239     17.364733      29.780972    
   1409000   0.96399732     16.988749      29.616941    
   1410000   0.98986708     17.401397      29.669642    
   1411000   0.9941422      17.632771      29.502057    
   1412000   1.0082798      17.442977      29.537992    
   1413000   0.98087329     16.715372      29.411036    
   1414000   0.98376263     17.395185      29.491548    
   1415000   0.98236097     17.414116      29.502702    
   1416000   1.0377271      17.832544      29.692416    
   1417000   0.99809136     17.566526      29.740862    
   1418000   1.0369769      17.552215      29.629008    
   1419000   1.0049957      17.642733      29.55441     
   1420000   0.97631101     16.653866      29.539369    
   1421000   1.0181883      17.717543      29.55286     
   1422000   1.0116931      17.319284      29.617749    
   1423000   1.0093726      17.786287      29.443346    
   1424000   0.9910283      17.408969      29.516853    
   1425000   0.95110466     17.287619      29.64906     
   1426000   1.005897       17.586925      29.634311    
   1427000   0.980984       17.223128      29.46408     
   1428000   0.94999817     18.258912      29.368362    
   1429000   1.0224046      18.371181      29.261784    
   1430000   1.0429524      17.776234      29.053163    
   1431000   1.0041631      17.612241      28.992117    
   1432000   0.92660791     16.825094      29.002224    
   1433000   0.97997687     17.126467      28.767834    
   1434000   1.0187774      17.674924      28.517868    
   1435000   0.98020785     17.426245      28.444596    
   1436000   0.97979272     17.877408      28.451004    
   1437000   1.0433808      17.006229      28.299743    
   1438000   1.0063837      17.302345      28.33014     
   1439000   1.0061495      17.754466      28.228006    
   1440000   0.98555583     17.357697      28.166738    
   1441000   0.98340833     17.885766      28.217315    
   1442000   0.97860955     16.865231      28.295684    
   1443000   1.0240957      17.299693      28.007061    
   1444000   1.0091362      17.568131      27.970186    
   1445000   0.99548046     17.340935      27.80588     
   1446000   0.99930617     17.082687      27.780186    
   1447000   0.98113234     17.702958      27.881531    
   1448000   1.0081197      17.094282      27.973103    
   1449000   1.027475       17.38354       27.799832    
   1450000   0.9939545      17.279302      27.771624    
   1451000   1.0004094      17.604597      27.513955    
   1452000   0.97851136     17.495212      27.596362    
   1453000   0.99824653     17.562036      27.439075    
   1454000   1.0334421      17.450649      27.420701    
   1455000   1.0185148      17.472806      27.510602    
   1456000   0.95603679     17.488276      27.430038    
   1457000   1.0026925      17.047175      27.289359    
   1458000   1.0244874      16.997659      27.078836    
   1459000   0.97017833     17.331106      27.162992    
   1460000   0.99076098     16.365486      27.094046    
   1461000   0.98905388     16.920381      26.850384    
   1462000   0.97652534     17.065704      26.824064    
   1463000   0.95861587     17.630438      26.809382    
   1464000   0.9995318      17.196965      26.755817    
   1465000   0.96094274     16.881047      26.461699    
   1466000   1.0134637      17.21841       26.527491    
   1467000   1.0006755      16.560242      26.323421    
   1468000   1.0422873      17.043478      26.400479    
   1469000   1.0269328      17.150908      26.18631     
   1470000   0.98070395     17.404474      26.04671     
   1471000   1.0227149      17.445886      26.013561    
   1472000   1.0765512      17.412159      26.114737    
   1473000   1.0037521      17.026381      26.091511    
   1474000   1.0344136      17.193454      26.240011    
   1475000   1.0177535      17.423155      26.354943    
   1476000   0.99969272     17.452529      26.377772    
   1477000   0.99539355     17.038446      26.250117    
   1478000   1.0338269      17.473058      26.221968    
   1479000   0.99753341     17.080637      26.212053    
   1480000   0.9861302      17.029043      26.255181    
   1481000   1.0491276      17.462426      26.039128    
   1482000   1.001278       16.831269      26.182147    
   1483000   0.98543123     17.161959      26.076383    
   1484000   0.98199832     17.402748      25.854504    
   1485000   1.0296046      17.013169      25.781793    
   1486000   0.97879361     17.340871      25.740964    
   1487000   1.0304599      17.07452       25.723886    
   1488000   1.0236959      17.231159      25.663407    
   1489000   0.99952671     17.14559       25.404903    
   1490000   0.99587325     17.706463      25.260615    
   1491000   1.013824       17.075633      25.12845     
   1492000   1.0165274      17.363112      25.112361    
   1493000   1.0268573      17.495939      25.108924    
   1494000   0.97572324     16.860313      25.078646    
   1495000   0.99390321     17.424519      24.907024    
   1496000   1.0077716      16.872084      25.021597    
   1497000   0.97729292     17.060866      24.993658    
   1498000   0.985061       16.923621      25.163674    
   1499000   1.0075359      17.201799      25.238654    
   1500000   0.93169098     16.619995      25.196831    
   1501000   1.0026049      17.411257      25.157179    
   1502000   0.98710079     17.046957      25.086754    
   1503000   0.97205352     17.130305      25.056329    
   1504000   1.0250689      16.877193      24.796728    
   1505000   0.9457311      16.566545      24.585345    
   1506000   1.0168656      17.386762      24.633608    
   1507000   0.98670106     17.25739       24.862516    
   1508000   1.0238309      17.663898      24.697022    
   1509000   1.0378286      16.739897      24.679306    
   1510000   1.0045197      16.985782      24.688899    
   1511000   0.98117003     17.169224      24.529102    
   1512000   1.0263157      17.19533       24.459027    
   1513000   1.0035425      17.496835      24.512727    
   1514000   0.99197272     17.087393      24.336888    
   1515000   1.0153778      17.554709      24.451429    
   1516000   1.0361569      17.457449      24.357737    
   1517000   1.041322       17.430711      24.255755    
   1518000   1.0021379      17.384509      24.152205    
   1519000   1.0038624      17.203852      24.175728    
   1520000   1.0017225      17.492349      24.2757      
   1521000   0.99601289     17.768974      24.355615    
   1522000   0.99734408     16.872059      24.33811     
   1523000   0.96479314     17.709476      24.15107     
   1524000   0.97738496     17.372892      23.810364    
   1525000   0.95659999     17.175307      23.986296    
   1526000   1.0560412      16.891666      24.077316    
   1527000   0.96701159     17.13728       24.052146    
   1528000   1.0248933      17.373547      23.850653    
   1529000   0.99846995     16.600437      23.676287    
   1530000   1.0024468      17.157519      23.564885    
   1531000   0.97309129     17.587833      23.435268    
   1532000   0.97926952     17.054114      23.290598    
   1533000   1.0025521      17.3594        23.082198    
   1534000   0.95542544     17.396178      23.210485    
   1535000   0.98067166     17.365706      23.255342    
   1536000   1.0266845      16.716692      23.295872    
   1537000   1.0147715      17.113871      23.179585    
   1538000   1.0153541      17.08257       22.949514    
   1539000   0.99894195     17.392412      22.806993    
   1540000   1.021735       17.042306      22.777174    
   1541000   1.0332349      17.012538      22.684499    
   1542000   0.99732606     16.89603       22.551776    
   1543000   0.99138347     16.95926       22.563106    
   1544000   0.99454515     17.702678      22.591061    
   1545000   1.0161955      16.954696      22.483906    
   1546000   1.0455185      17.457449      22.348846    
   1547000   1.0184732      17.278957      22.234297    
   1548000   1.033213       17.226735      22.224687    
   1549000   1.0102774      16.871369      22.328369    
   1550000   1.0116852      16.667062      22.342853    
   1551000   0.9942465      17.181162      22.280904    
   1552000   1.0079342      17.705015      22.025522    
   1553000   0.99603074     17.103771      21.82957     
   1554000   1.014725       17.383215      21.766641    
   1555000   1.0096058      16.964087      21.639707    
   1556000   1.0235095      16.864201      21.626816    
   1557000   1.0224979      16.681326      21.602328    
   1558000   0.9462744      17.576016      21.751985    
   1559000   0.9926909      16.808875      21.826917    
   1560000   1.0033614      17.401415      21.709894    
   1561000   1.0262442      17.548754      21.650404    
   1562000   1.0456425      16.891831      21.681157    
   1563000   0.98441264     17.166605      21.59051     
   1564000   1.0269651      17.359571      21.538674    
   1565000   1.0093941      16.570027      21.619708    
   1566000   0.96278886     17.203144      21.659006    
   1567000   1.0145558      17.288937      21.34728     
   1568000   1.0055146      17.260503      21.476216    
   1569000   1.0001965      17.404381      21.458218    
   1570000   1.0437989      17.200774      21.213814    
   1571000   1.0113602      17.126326      21.069316    
   1572000   0.99437267     17.080001      21.140657    
   1573000   1.0224383      17.775834      20.889364    
   1574000   0.9965053      16.96534       20.881206    
   1575000   1.0055686      16.918611      20.93837     
   1576000   1.0222737      17.791124      20.72972     
   1577000   0.99026674     16.560253      20.791997    
   1578000   1.013877       17.184985      20.963003    
   1579000   0.99471482     17.167466      21.228912    
   1580000   0.98406607     17.451887      21.134189    
   1581000   1.0062959      17.209889      20.891465    
   1582000   0.99786922     17.085925      20.822473    
   1583000   1.0161063      17.01947       20.863512    
   1584000   0.98484963     16.897951      20.766       
   1585000   1.0030228      16.741732      20.83791     
   1586000   1.0107054      17.328638      20.862614    
   1587000   1.0019635      17.132055      20.798379    
   1588000   0.99524248     16.907697      20.81706     
   1589000   1.0122893      17.957616      20.779596    
   1590000   1.0170721      16.973807      20.697334    
   1591000   1.0110168      17.341402      20.494234    
   1592000   1.0033084      17.171995      20.479089    
   1593000   0.98421426     16.898434      20.308457    
   1594000   0.98448373     17.179821      20.131454    
   1595000   0.98886126     17.415507      20.027664    
   1596000   0.97543149     16.970813      20.207731    
   1597000   1.0067269      16.965036      20.079152    
   1598000   1.0200483      16.80242       19.941019    
   1599000   0.97273289     16.993688      19.729531    
   1600000   1.0238465      16.791643      19.90293     
   1601000   1.0016272      17.35563       19.957339    
   1602000   0.96840913     17.45205       19.947756    
   1603000   0.99450837     16.981261      19.818781    
   1604000   1.0207316      16.929699      19.965346    
   1605000   1.0527149      16.892122      19.75804     
   1606000   1.0039339      17.101314      19.746428    
   1607000   0.94688595     16.955114      19.613716    
   1608000   1.0187211      16.805567      19.666419    
   1609000   1.0032775      17.45021       19.304905    
   1610000   0.98978342     17.079169      18.985868    
   1611000   0.97344443     16.873461      19.076657    
   1612000   1.0118982      17.302498      19.172094    
   1613000   1.0103389      17.416359      19.32523     
   1614000   0.97136061     16.758992      19.318076    
   1615000   0.95095776     17.129173      19.378859    
   1616000   0.99280029     17.144942      19.362278    
   1617000   0.99931503     17.171103      19.194603    
   1618000   0.97734818     17.533202      19.194173    
   1619000   1.0174127      16.919483      19.109411    
   1620000   0.98970617     17.292246      19.007482    
   1621000   0.98175698     17.030477      18.933493    
   1622000   0.9932043      16.831696      18.821785    
   1623000   1.0105945      17.027529      18.863744    
   1624000   1.0403802      16.859531      18.66402     
   1625000   0.99354519     17.391233      18.542954    
   1626000   0.95696384     17.383512      18.341003    
   1627000   0.98710215     16.876477      18.345524    
   1628000   1.0434253      17.263197      18.239895    
   1629000   0.98146565     17.384555      18.151709    
   1630000   0.98155224     16.900253      18.076521    
   1631000   0.96512382     17.329737      17.875311    
   1632000   1.0151106      16.77393       17.839251    
   1633000   1.0022834      16.925621      17.755997    
   1634000   0.94914096     16.9115        17.487495    
   1635000   1.0425571      17.330506      17.359149    
   1636000   0.98184181     17.437837      17.320819    
   1637000   1.0174618      17.383582      17.258315    
   1638000   0.9726312      16.952749      17.05636     
   1639000   1.0200019      16.865223      17.279154    
   1640000   0.98733723     16.917938      17.179518    
   1641000   0.99590323     17.346135      16.964408    
   1642000   1.0759081      17.434085      17.026943    
   1643000   1.0326565      17.687482      16.900636    
   1644000   0.96762007     16.796752      16.744369    
   1645000   1.0244757      17.301102      16.695741    
   1646000   1.002786       17.343099      16.768481    
   1647000   0.99793014     17.037793      16.927977    
   1648000   0.97073896     17.473058      16.85367     
   1649000   0.99541123     17.125193      16.680835    
   1650000   1.0133289      17.277736      16.71443     
   1651000   0.99713439     16.804249      16.559244    
   1652000   1.0021974      17.015043      16.612674    
   1653000   0.97053815     17.203697      16.836973    
   1654000   0.98044735     16.822445      16.722284    
   1655000   0.98290766     17.12942       16.808747    
   1656000   1.0464864      17.359705      16.808221    
   1657000   0.97450391     17.088182      16.726379    
   1658000   1.0093977      16.754371      16.844513    
   1659000   1.007417       17.100657      16.925435    
   1660000   0.9878501      16.844322      16.938591    
   1661000   1.0175521      17.682587      16.77924     
   1662000   1.0215175      16.963271      16.762808    
   1663000   0.97370953     16.718933      16.601242    
   1664000   1.021586       17.809231      16.469461    
   1665000   0.98557711     17.081533      16.440881    
   1666000   0.96069703     16.883091      16.42948     
   1667000   1.0089652      17.55521       16.474691    
   1668000   0.9851451      16.820351      16.477263    
   1669000   0.99307717     17.011594      16.296018    
   1670000   1.0195416      17.350362      16.172688    
   1671000   0.99136478     17.036824      15.939785    
   1672000   0.97241708     17.088024      15.900866    
   1673000   0.99019088     17.009763      15.755689    
   1674000   1.018887       17.022608      15.62907     
   1675000   1.0322804      17.284969      15.45965     
   1676000   1.0015446      17.594975      15.46327     
   1677000   1.044921       17.679602      15.36561     
   1678000   1.0017488      17.217623      15.22857     
   1679000   0.99910748     17.323787      15.236707    
   1680000   1.0116974      17.394525      15.115209    
   1681000   0.98761021     17.351742      15.079892    
   1682000   0.99956005     16.915658      15.148891    
   1683000   1.0420971      17.221836      15.022232    
   1684000   0.98380775     16.751229      14.984392    
   1685000   1.0176729      16.735311      14.795763    
   1686000   0.99916358     16.887433      14.804743    
   1687000   0.97883348     16.900551      14.825993    
   1688000   1.0439065      17.485495      14.544518    
   1689000   0.98921812     17.09695       14.438896    
   1690000   1.0273735      16.772794      14.43316     
   1691000   0.98232908     17.304866      14.315524    
   1692000   0.99529557     16.844985      14.296916    
   1693000   0.97754796     17.438728      14.029661    
   1694000   1.0284997      16.681065      14.092097    
   1695000   0.99946523     17.0366        14.046201    
   1696000   0.9985174      16.770209      13.905027    
   1697000   1.0199685      17.068795      13.835272    
   1698000   1.0572329      17.201695      13.693233    
   1699000   1.0281069      17.227612      13.625011    
   1700000   0.97103335     16.978564      13.672425    
   1701000   0.96866548     17.420627      13.683111    
   1702000   1.027483       17.098474      13.758504    
   1703000   0.97814188     17.08497       13.688253    
   1704000   0.98394914     17.139138      13.473895    
   1705000   0.99928857     17.067249      13.308273    
   1706000   0.93759111     17.130101      13.255162    
   1707000   1.0010406      16.507864      13.25582     
   1708000   1.0166947      17.302503      13.130571    
   1709000   1.0156927      17.420428      12.793176    
   1710000   0.95073384     17.349935      12.596762    
   1711000   1.0251061      16.657556      12.580695    
   1712000   1.0097022      16.863726      12.579481    
   1713000   0.96418797     16.996823      12.525461    
   1714000   1.0098731      16.524272      12.414433    
   1715000   0.99484171     17.536867      12.207212    
   1716000   1.0059686      17.636354      12.015588    
   1717000   1.0561663      17.005773      11.917519    
   1718000   0.96669908     16.911904      11.802463    
   1719000   0.98400896     17.202942      11.574275    
   1720000   0.9963044      16.950138      11.448495    
   1721000   0.9894098      17.074864      11.372747    
   1722000   1.0047866      17.006682      11.246389    
   1723000   1.038291       17.701576      11.297684    
   1724000   0.9872565      17.485016      11.32105     
   1725000   1.024586       17.229367      11.212996    
   1726000   1.0160267      16.63795       11.06286     
   1727000   0.96012382     17.177         10.808794    
   1728000   1.0176403      17.276679      10.631739    
   1729000   0.99644826     17.276275      10.50635     
   1730000   1.0165131      16.888437      10.522532    
   1731000   0.99528721     16.918017      10.573151    
   1732000   1.0381772      17.222907      10.613584    
   1733000   0.98222727     16.966205      10.623931    
   1734000   1.0203497      17.459412      10.603415    
   1735000   0.96241553     16.737152      10.407229    
   1736000   1.0243292      17.069542      10.305062    
   1737000   0.98642655     16.929649      10.331829    
   1738000   0.99610849     16.904403      10.336754    
   1739000   0.99507459     17.177881      10.601305    
   1740000   1.0099263      17.101948      10.516781    
   1741000   1.0353403      17.900075      10.534381    
   1742000   0.99945676     16.995097      10.496469    
   1743000   0.98245348     17.311487      10.38774     
   1744000   0.98338478     16.915847      10.510586    
   1745000   1.0338941      17.161361      10.29169     
   1746000   1.0145593      16.834648      10.241153    
   1747000   0.96135445     17.078189      10.104235    
   1748000   0.97996249     17.060771      10.072396    
   1749000   1.0253589      17.494749      9.9718259    
   1750000   1.0009807      16.707168      9.9943003    
   1751000   0.96457582     16.452277      9.9092651    
   1752000   1.0000508      17.133168      9.6853867    
   1753000   1.0048013      17.26274       9.5986978    
   1754000   0.9723058      17.28579       9.6071668    
   1755000   0.9913109      16.916453      9.6177655    
   1756000   1.0030347      17.248886      9.6363104    
   1757000   0.99489654     17.49308       9.4089156    
   1758000   0.97582258     17.120439      9.5181846    
   1759000   1.0459459      17.833427      9.4380288    
   1760000   1.0281504      16.931877      9.6424994    
   1761000   1.0349472      17.750212      9.913354     
   1762000   1.0295457      17.073338      9.7396142    
   1763000   0.97887058     16.534037      9.5830123    
   1764000   0.99573647     17.324275      9.6357388    
   1765000   0.96074271     16.847954      9.7375294    
   1766000   1.0224434      16.770742      9.5950709    
   1767000   1.0031032      16.951064      9.8174242    
   1768000   0.95619474     17.361603      9.8641989    
   1769000   0.96476556     16.964148      9.8054823    
   1770000   1.0097315      16.883939      9.9498585    
   1771000   1.0132821      16.634518      10.043799    
   1772000   1.0018903      16.59737       10.009809    
   1773000   0.99178775     16.794303      9.7926139    
   1774000   0.99010502     16.84061       9.6470752    
   1775000   1.0053998      17.255529      9.5341102    
   1776000   1.0388089      16.976194      9.5132284    
   1777000   1.0194133      17.516622      9.5260937    
   1778000   0.98436939     16.946441      9.5832095    
   1779000   1.0082741      17.029609      9.6599402    
   1780000   1.0165976      17.735981      9.4655693    
   1781000   1.0376104      17.347198      9.2268155    
   1782000   0.98406981     16.894941      9.119014     
   1783000   0.98667353     16.761008      9.0778841    
   1784000   0.99987178     16.811667      8.9813943    
   1785000   1.0177927      17.058547      8.8731074    
   1786000   1.0324626      16.346428      8.8149247    
   1787000   1.0147898      17.89216       8.8236266    
   1788000   0.99546328     17.011584      8.7071003    
   1789000   1.081207       17.704891      8.7276179    
   1790000   1.0251584      17.616802      8.688538     
   1791000   1.048228       17.417788      8.726216     
   1792000   1.0090021      16.67831       8.5989957    
   1793000   0.97808188     16.368256      8.6479149    
   1794000   0.9938171      17.158491      8.7628274    
   1795000   1.0125631      16.986208      8.7697682    
   1796000   1.0017703      16.598461      8.6984605    
   1797000   0.93263855     17.104192      8.553307     
   1798000   1.0036395      17.286511      8.4737174    
   1799000   0.98518227     17.933929      8.4495883    
   1800000   0.9582264      16.669997      8.2971482    
   1801000   0.98839677     17.514818      8.0745231    
   1802000   1.0377861      16.911006      7.9869872    
   1803000   1.0148262      17.151104      7.9669505    
   1804000   1.01055        16.831697      8.1752315    
   1805000   0.98981489     17.164337      8.0842461    
   1806000   1.0060216      17.257216      7.9153704    
   1807000   1.0029175      17.580791      7.6636732    
   1808000   0.98297224     17.168298      7.51431      
   1809000   1.0071582      17.140626      7.3136804    
   1810000   1.0263702      16.839231      7.1774677    
Fix halt condition for fix-id 3 met on step 1811000 with value 6.821586629314558 (src/fix_halt.cpp:237)
   1811000   1.0089134      16.910292      6.8215866    
Loop time of 2435.11 on 2 procs for 1711000 steps with 1099 atoms

Performance: 607079.711 tau/day, 702.639 timesteps/s
131.4% CPU use with 1 MPI tasks x 2 OpenMP threads

MPI task timing breakdown:
Section |  min time  |  avg time  |  max time  |%varavg| %total
---------------------------------------------------------------
Pair    | 594.86     | 594.86     | 594.86     |   0.0 | 24.43
Bond    | 41.899     | 41.899     | 41.899     |   0.0 |  1.72
Neigh   | 1695.1     | 1695.1     | 1695.1     |   0.0 | 69.61
Comm    | 0.64362    | 0.64362    | 0.64362    |   0.0 |  0.03
Output  | 5.5847     | 5.5847     | 5.5847     |   0.0 |  0.23
Modify  | 90.613     | 90.613     | 90.613     |   0.0 |  3.72
Other   |            | 6.424      |            |       |  0.26

Nlocal:           1099 ave        1099 max        1099 min
Histogram: 1 0 0 0 0 0 0 0 0 0
Nghost:              0 ave           0 max           0 min
Histogram: 1 0 0 0 0 0 0 0 0 0
Neighs:         247229 ave      247229 max      247229 min
Histogram: 1 0 0 0 0 0 0 0 0 0

Total # of neighbors = 247229
Ave neighs/atom = 224.95814
Ave special neighs/atom = 1.9981802
Neighbor list builds = 16464
Dangerous builds = 0

# This simulation is done
# Move onto the next one
clear
  using 2 OpenMP thread(s) per MPI task
package omp 0
using multi-threaded neighbor list subroutines
next f
jump SELF

###
# Reference paper:
# K. Kremer and G. S. Grest
# Dynamics of entangled linear polymer melts: A molecular-dynamics simulation
# J Chem Phys 92, 5057 (1990)

##################################
# MIHIR: for branched polymers
# LJ minimum first to expand and explore, then collapse
###

###
# Looping through the various N1B3 polymers to simulate,
# define variables to switch through
#variable f index bb66nuc1bl33bn3d30tot100 bb133nuc1bl66bn3d30tot200 bb200nuc1bl100bn3d30tot300 bb266nuc1bl133bn3d30tot400 bb333nuc1bl166bn3d30tot500 bb400nuc1bl200bn3d30tot600 bb466nuc1bl233bn3d30tot700 bb533nuc1bl266bn3d30tot800 bb600nuc1bl300bn3d30tot900 bb666nuc1bl333bn3d30tot1000 bb733nuc1bl366bn3d30tot1100 bb800nuc1bl400bn3d30tot1200
# variable f index bb66nuc1bl33bn3d30tot100V3 bb133nuc1bl66bn3d30tot200V3 bb200nuc1bl100bn3d30tot300V3 bb266nuc1bl133bn3d30tot400V3 bb333nuc1bl166bn3d30tot500V3 bb400nuc1bl200bn3d30tot600V3 bb466nuc1bl233bn3d30tot700V3 bb533nuc1bl266bn3d30tot800V3 bb600nuc1bl300bn3d30tot900V3 bb666nuc1bl333bn3d30tot1000V3 bb733nuc1bl366bn3d30tot1100V3 bb800nuc1bl400bn3d30tot1200V3
#variable f index bb66nuc1bl33bn3d30tot100V2 bb133nuc1bl66bn3d30tot200V2 bb200nuc1bl100bn3d30tot300V2 bb266nuc1bl133bn3d30tot400V2 bb333nuc1bl166bn3d30tot500V2 bb400nuc1bl200bn3d30tot600V2 bb466nuc1bl233bn3d30tot700V2 bb533nuc1bl266bn3d30tot800V2 bb600nuc1bl300bn3d30tot900V2 bb666nuc1bl333bn3d30tot1000V2 bb733nuc1bl366bn3d30tot1100V2 bb800nuc1bl400bn3d30tot1200V2
variable f index bb733nuc1bl366bn3d30tot1100V2 bb800nuc1bl400bn3d30tot1200V2
###


###
# Box and units  (use LJ units and periodic boundaries)
###

units lj
log N1B3/trial2/logs/$f.log
log N1B3/trial2/logs/bb800nuc1bl400bn3d30tot1200V2.log
