#atom_style bond #no stiffness
atom_style angle #with stiffness

boundary        p p p
###
# Pair interactions require lists of neighbours to be calculated
###

#neighbor 0.3 bin
neighbor 4 bin

neigh_modify every 1 delay 1 check yes
atom_modify sort 0 0
### Generate RESTART file, SPECIAL format, not a .txt file ###
### Useful if simulation crashes ###

restart 1000000 N1B3/trial2/restarts/$f.restart
restart 1000000 N1B3/trial2/restarts/bb800nuc1bl400bn3d30tot1200V2.restart
#############################



### READ "start" data file ###

read_data N1B3/trial2/dats2/$f.dat
read_data N1B3/trial2/dats2/bb800nuc1bl400bn3d30tot1200V2.dat
Reading data file ...
  orthogonal box = (-1000 -1000 -1000) to (1000 1000 1000)
  1 by 1 by 1 MPI processor grid
  reading atoms ...
  1201 atoms
  scanning bonds ...
  2 = max bonds/atom
  scanning angles ...
  3 = max angles/atom
  reading bonds ...
  1200 bonds
  reading angles ...
  1200 angles
Finding 1-2 1-3 1-4 neighbors ...
  special bond factors lj:    0        0        0       
  special bond factors coul:  0        0        0       
     3 = max # of 1-2 neighbors
     3 = max # of 1-3 neighbors
     6 = max # of 1-4 neighbors
     9 = max # of special neighbors
  special bonds CPU = 0.003 seconds
  read_data CPU = 0.291 seconds

######################

### READ "REstart" data file ###

######################



###
# Define groups (atom type 1 is group 'all')
###
group all type 1
1201 atoms in group all


###
# Dump configs - "simple dumpings"
###

###
# Dump configs + box coords
###

dump   1   all   custom   1000  N1B3/trial2/trjs/$f.lammpstrj  id  x y z  ix iy iz
dump   1   all   custom   1000  N1B3/trial2/trjs/bb800nuc1bl400bn3d30tot1200V2.lammpstrj  id  x y z  ix iy iz
dump_modify   1   format line "%d %.5f %.5f %.5f %d %d %d"

########################################################################


###################################################################
# Stiffness term
#
# E = K * (1+cos(theta)), K>0
#
angle_style   cosine
#change this coefficient to change stiffness (e.g. 1,5,10)
angle_coeff   1 1.0
###################################################################

###################################################################
# Pair interaction between non-bonded atoms
#
#  Lennard-Jones 12-6 potential with cutoff:
#  potential E=4epsilon[ (sigma/r)^12 - (sigma/r)^6]  for r<r_cut
#
#  1.12246 = 2^(1/6) is the minimum of the potential


pair_style      lj/cut 1.12246152962189
#pair_style      lj/cut 3

#
#  pair_modify shift yes adds a constant to the potential such

#  that E(r_cut)=0. Forces remains unchanged.
#

pair_modify     shift yes

#
#  pair_coeff for lj/cut, specify 4:
#    * atom type interacting with
#    * atom type
#    * epsilon (energy units)
#    * sigma (distance units)
#

pair_coeff      1 1 1.0 1.0
###################################################################

###################################################################
# Pair interaction between non-bonded atoms
#
#  soft potential, for PUSHING apart overlapping atoms
#  potential E=A*(1 + cos(pi*r/r_c))
#
#  1.12246 = 2^(1/6) is the cut-off r_c

#pair_style     soft 1.12246152962189

#
#  pair_coeff for soft, specify 3:
#    * atom type interacting with
#    * atom type
#    * A
#
#

#pair_coeff      1 1 100.0
###################################################################

###################################################################
# Pair interaction between bonded atoms
#
# Fene potential + Lennard Jones 12-6:

#
#  E= - 0.5 K R0^2 ln[ 1- (r/R0)^2]
#     + 4epsilon[ (sigma/r)^12 - (sigma/r)^6] + epsilon
#

bond_style   fene


#
# For style fene, specify:
#   * bond type
#   * K (energy/distance^2)
#   * R0 (distance)
#   * epsilon (energy)  (LJ component)
#   * sigma (distance)  (LJ component)
#


special_bonds fene #<=== I M P O R T A N T (new command)
Finding 1-2 1-3 1-4 neighbors ...
  special bond factors lj:    0        1        1       
  special bond factors coul:  0        1        1       
     3 = max # of 1-2 neighbors
     9 = max # of special neighbors
  special bonds CPU = 0.001 seconds

bond_coeff   1   30   2   1.0   1.0


###################################################

###################################################################
# Pair interaction between bonded atoms
#
# Harmonic potential:
#
#  E= K * (R-R0)^2
#

#bond_style   harmonic

#
# For style harmonic, specify:
#   * bond type
#   * K (energy/distance^2)
#   * R0 (distance)
#

#bond_coeff   1   60.0   1.0
#bond_coeff   2   harmonic 0.1   1.0

###################################################
compute 1 all gyration
variable rog equal c_1
#compute 2 all coord/atom cutoff 1.1

#dump 2 all custom 10000 contact_number.dump id c_2


###
# Set up fixes
###
thermo_style   custom   step  temp enthalpy c_1
fix 1 all nve   ###NVE ensemble

fix 2 all   langevin   1.0 1.0 1.0  778655   ###Langevin integrator Tstart Tstop 1/friction rndseed


##### Sample thermodynamic info  (temperature, energy, pressure, etc.) #####
thermo 1000









############################################################################

###
# set timestep of integrator

timestep 0.01

###
# run integration for a number of steps
###
#run 0
#variable r equal c_1
#if "$r < 63.1" then "quit 1"

# lj potential minimum, cause molecule to explore
run 100000
Generated 0 of 0 mixed pair_coeff terms from geometric mixing rule
Last active /omp style is angle_style cosine/omp
Neighbor list info ...
  update: every = 1 steps, delay = 1 steps, check = yes
  max neighbors/atom: 2000, page size: 100000
  master list distance cutoff = 5.1224615
  ghost atom cutoff = 5.1224615
  binsize = 2.5612308, bins = 781 781 781
  1 neighbor lists, perpetual/occasional/extra = 1 0 0
  (1) pair lj/cut/omp, perpetual
      attributes: half, newton on, omp
      pair build: half/bin/newton/omp
      stencil: half/bin/3d
      bin: standard
WARNING: Communication cutoff 5.12246152962189 is shorter than a bond length based estimate of 5.455. This may lead to errors. (src/comm.cpp:723)
Per MPI rank memory allocation (min/avg/max) = 1860 | 1860 | 1860 Mbytes
   Step          Temp         Enthalpy         c_1      
         0   0              13.178991      213.51098    
      1000   1.0188582      17.099941      213.01016    
      2000   1.0134512      16.88745       212.64398    
      3000   1.0255353      17.2654        212.04494    
      4000   1.0420877      17.711055      211.68091    
      5000   0.98556957     16.962489      211.21613    
      6000   1.0400373      18.091845      210.70436    
      7000   1.0195517      17.872852      210.2353     
      8000   1.002558       17.822799      209.64788    
      9000   0.98918329     17.607987      209.17283    
     10000   1.002868       18.000865      208.73253    
     11000   1.0239674      18.255993      208.23577    
     12000   0.9913526      18.174315      208.08356    
     13000   1.0155331      17.765356      207.62307    
     14000   0.99595404     17.804823      207.14964    
     15000   0.99733448     18.093801      206.65552    
     16000   1.0243415      17.931057      206.20341    
     17000   0.96188176     18.219798      205.80573    
     18000   1.0114824      18.263859      205.508      
     19000   1.0059252      18.195486      205.20722    
     20000   1.0012706      18.28597       205.04535    
     21000   1.0216053      18.54961       204.58376    
     22000   1.0170068      18.20884       204.25729    
     23000   0.96141215     18.372797      203.72302    
     24000   1.014967       18.654905      203.32585    
     25000   0.99513502     18.36125       203.03493    
     26000   1.0087646      18.512099      202.6988     
     27000   0.97440356     18.878457      202.36262    
     28000   1.0109591      18.675352      202.02882    
     29000   0.96030718     18.391518      201.66349    
     30000   0.96784418     18.96727       201.25344    
     31000   1.0189694      19.077576      200.89166    
     32000   1.0031288      18.794064      200.62443    
     33000   1.0280573      18.61095       200.61441    
     34000   0.99539797     18.686471      200.33358    
     35000   1.0435874      19.0858        200.22234    
     36000   0.99469781     18.775627      200.10031    
     37000   1.0197123      18.552373      199.99258    
     38000   0.97992972     18.679849      199.90104    
     39000   0.985977       18.508214      199.6971     
     40000   0.96789947     18.464819      199.56659    
     41000   0.98903948     18.674344      199.25177    
     42000   1.0136007      18.88813       199.21787    
     43000   1.0007623      18.653649      199.05892    
     44000   1.0343469      18.913457      198.80745    
     45000   0.95358289     18.852564      198.5994     
     46000   1.0226477      19.014054      198.54927    
     47000   1.0303297      19.007341      198.40864    
     48000   1.0064386      18.934196      198.05742    
     49000   0.98148129     18.629627      197.65438    
     50000   1.001263       18.999451      197.46499    
     51000   1.0240713      19.375581      197.0898     
     52000   1.0029463      19.095835      196.68816    
     53000   0.97826342     18.498863      196.56051    
     54000   1.0404595      19.346631      196.45293    
     55000   1.0044081      18.985359      196.22191    
     56000   0.95844435     18.73086       195.83601    
     57000   0.98119381     18.977718      195.44514    
     58000   1.0130974      18.758392      195.27792    
     59000   0.95671077     18.690975      195.00492    
     60000   0.98463572     18.755179      195.01804    
     61000   1.0064336      18.702561      194.84426    
     62000   1.0099481      19.212739      194.71202    
     63000   1.0419057      19.275158      194.51852    
     64000   1.015295       19.035342      194.23528    
     65000   1.0319318      19.323362      193.85027    
     66000   1.0110994      19.275393      193.67329    
     67000   0.97078592     19.32247       193.37556    
     68000   1.0673843      19.665539      193.25748    
     69000   0.98918144     18.862119      192.98722    
     70000   0.99833807     18.985604      192.85127    
     71000   0.98115362     19.390639      192.5028     
     72000   1.0343906      19.318438      192.41218    
     73000   1.0116115      19.652648      192.28494    
     74000   1.0512992      19.086144      192.03799    
     75000   1.0362361      19.362555      191.80204    
     76000   0.98898765     19.563106      191.57022    
     77000   1.0168797      19.352514      191.40648    
     78000   0.97583743     19.180769      191.3654     
     79000   0.97922483     19.568076      190.9992     
     80000   0.9774792      19.327878      190.83153    
     81000   0.9898186      19.417721      190.91599    
     82000   0.97774654     19.525788      190.77912    
     83000   1.0129804      19.673811      190.66863    
     84000   1.0150423      19.545654      190.37039    
     85000   0.98673562     19.259562      190.08001    
     86000   1.0070468      19.283533      189.74605    
     87000   1.010608       19.150714      189.76035    
     88000   0.97122827     19.088419      189.76238    
     89000   0.99572        19.359085      189.65869    
     90000   1.0388462      19.306         189.56462    
     91000   1.0081095      19.327499      189.52775    
     92000   1.0135071      19.119213      189.27538    
     93000   0.96613592     19.268575      189.07564    
     94000   1.0166244      19.121502      188.67587    
     95000   1.0482365      19.18184       188.49757    
     96000   1.0137343      19.510207      188.49239    
     97000   1.005878       19.603397      188.41583    
     98000   0.99694601     19.454457      188.4038     
     99000   0.94173363     19.638009      188.4167     
    100000   0.98470913     19.20641       188.33919    
Loop time of 280.182 on 2 procs for 100000 steps with 1201 atoms

Performance: 308370.499 tau/day, 356.910 timesteps/s
104.9% CPU use with 1 MPI tasks x 2 OpenMP threads

MPI task timing breakdown:
Section |  min time  |  avg time  |  max time  |%varavg| %total
---------------------------------------------------------------
Pair    | 1.3379     | 1.3379     | 1.3379     |   0.0 |  0.48
Bond    | 3.093      | 3.093      | 3.093      |   0.0 |  1.10
Neigh   | 267.94     | 267.94     | 267.94     |   0.0 | 95.63
Comm    | 0.038927   | 0.038927   | 0.038927   |   0.0 |  0.01
Output  | 0.41595    | 0.41595    | 0.41595    |   0.0 |  0.15
Modify  | 6.9117     | 6.9117     | 6.9117     |   0.0 |  2.47
Other   |            | 0.4401     |            |       |  0.16

Nlocal:           1201 ave        1201 max        1201 min
Histogram: 1 0 0 0 0 0 0 0 0 0
Nghost:              0 ave           0 max           0 min
Histogram: 1 0 0 0 0 0 0 0 0 0
Neighs:           5934 ave        5934 max        5934 min
Histogram: 1 0 0 0 0 0 0 0 0 0

Total # of neighbors = 5934
Ave neighs/atom = 4.9408826
Ave special neighs/atom = 1.9983347
Neighbor list builds = 1052
Dangerous builds = 0

# Replace lj potential, now collapse
pair_style      lj/cut 3

# Cutoff simul when gyration under 7
# Variable created with equal requires v_ + 'name'
fix 3 all halt 1000 v_rog < 7

run 5000000
Generated 0 of 0 mixed pair_coeff terms from geometric mixing rule
Last active /omp style is angle_style cosine/omp
Per MPI rank memory allocation (min/avg/max) = 1860 | 1860 | 1860 Mbytes
   Step          Temp         Enthalpy         c_1      
    100000   0.98470913     18.769416      188.33919    
    101000   0.97470429     19.001094      188.03498    
    102000   0.96727781     19.056892      187.72008    
    103000   0.98696787     19.269661      187.33293    
    104000   0.99506619     19.179221      187.02872    
    105000   0.96667125     19.486132      186.7038     
    106000   1.0007986      19.015621      186.52574    
    107000   0.98766156     18.668476      186.56731    
    108000   0.99475976     19.132501      186.27903    
    109000   0.99040014     19.114261      186.22949    
    110000   1.0166448      19.059414      186.0651     
    111000   0.99055449     19.0815        186.0338     
    112000   1.013127       18.706007      186.02782    
    113000   0.99252628     19.313408      185.85837    
    114000   1.0182072      19.23866       185.57388    
    115000   1.0380253      18.909726      185.23405    
    116000   0.9597281      18.707996      185.19368    
    117000   0.93113537     18.744513      184.96652    
    118000   0.95802699     19.233986      184.54049    
    119000   0.99186017     18.9013        184.29876    
    120000   0.99772949     19.064327      184.27899    
    121000   1.0148298      19.400267      184.18627    
    122000   0.99511419     18.949526      184.15469    
    123000   1.0547474      19.147016      184.26965    
    124000   1.0508787      19.267095      183.98715    
    125000   1.0698874      19.458613      183.74293    
    126000   1.0137527      18.881778      183.6233     
    127000   1.0208262      19.150138      183.48513    
    128000   1.014788       19.004759      183.15131    
    129000   0.99528339     19.167899      182.98567    
    130000   0.97417862     18.821794      182.59104    
    131000   1.0002622      19.518583      182.66442    
    132000   1.0273714      19.092862      182.67601    
    133000   0.94283044     19.111563      182.58422    
    134000   0.98574863     18.920895      182.42581    
    135000   1.0136096      19.032898      182.12023    
    136000   0.98842434     19.180801      181.90577    
    137000   0.98132846     18.894833      181.73988    
    138000   0.9745173      19.207269      181.56115    
    139000   1.0116449      19.2816        181.47688    
    140000   0.99690365     19.007353      181.50977    
    141000   0.97414615     18.739392      181.52444    
    142000   1.0240021      19.258713      181.34004    
    143000   1.0200694      18.964329      181.15998    
    144000   0.94108669     18.665281      181.02301    
    145000   1.020854       19.361646      180.85811    
    146000   0.99268474     19.283577      180.67826    
    147000   0.97515086     18.750877      180.36433    
    148000   0.96947213     18.725455      180.22514    
    149000   0.98271026     19.242761      180.18814    
    150000   1.0156868      19.179261      180.19184    
    151000   1.0397491      19.199093      180.21886    
    152000   1.0723937      18.654803      180.17826    
    153000   0.94181245     18.964056      179.92624    
    154000   1.0295144      19.017005      179.77096    
    155000   1.0167939      18.984932      179.85207    
    156000   1.0112182      19.086767      179.69143    
    157000   1.0217787      19.333425      179.48366    
    158000   1.0103991      19.202707      179.4425     
    159000   1.0262398      19.169283      179.14113    
    160000   0.97446891     19.78768       179.1093     
    161000   1.0162069      19.054722      178.68376    
    162000   0.98795996     19.225034      178.51445    
    163000   1.0866454      19.110504      178.1681     
    164000   0.98786469     18.828222      178.05104    
    165000   0.96571975     18.769059      177.96936    
    166000   1.0064542      18.759438      177.97572    
    167000   1.0347165      19.164572      177.92316    
    168000   0.99646338     19.154893      177.95317    
    169000   0.99425251     18.819026      177.78755    
    170000   1.0469061      18.899741      177.7094     
    171000   0.96472635     18.735205      177.66295    
    172000   0.96453484     18.814431      177.564      
    173000   1.002113       19.21119       177.27975    
    174000   1.0218915      18.884957      177.20731    
    175000   1.0126356      19.306923      177.04983    
    176000   1.0280382      19.147684      177.06131    
    177000   1.0074485      18.998294      176.88548    
    178000   0.96267105     19.118185      176.84601    
    179000   0.99595021     18.725948      176.50663    
    180000   1.0045914      19.438589      176.39218    
    181000   0.99937929     19.134177      176.54199    
    182000   0.99143623     18.908184      176.56344    
    183000   1.0130243      19.07054       176.33422    
    184000   0.9804283      18.923471      176.27017    
    185000   0.99528923     18.480421      175.97187    
    186000   0.96485692     19.233064      175.63286    
    187000   1.0228006      18.765473      175.42147    
    188000   0.94538976     18.672554      175.28888    
    189000   0.97269363     18.654292      175.21865    
    190000   1.0308781      19.281352      174.94566    
    191000   1.0274696      18.978314      174.74178    
    192000   0.98820986     18.640706      174.6789     
    193000   0.99030054     19.050476      174.52998    
    194000   1.010393       19.087938      174.28587    
    195000   0.99294219     19.096349      174.24209    
    196000   1.0057524      18.926342      173.99567    
    197000   0.98846802     18.966975      173.81458    
    198000   1.0175544      18.803288      173.68588    
    199000   0.98380316     19.046317      173.67157    
    200000   0.96880413     18.595295      173.64528    
    201000   1.0027367      19.015613      173.45437    
    202000   1.0100457      19.461179      173.27327    
    203000   0.97937155     19.047195      173.10282    
    204000   1.0193269      19.019794      173.02497    
    205000   0.96358151     18.786279      172.93534    
    206000   1.0023536      18.956772      172.71907    
    207000   1.0725076      19.48393       172.62944    
    208000   0.97201169     18.946275      172.52325    
    209000   0.9583257      19.346645      172.22184    
    210000   1.0097177      18.900336      172.33602    
    211000   1.0136536      18.801675      172.1633     
    212000   0.97772676     18.635278      172.07674    
    213000   0.98677785     19.010348      171.88276    
    214000   1.0013126      19.163607      171.72523    
    215000   0.97223023     18.937297      171.68335    
    216000   0.99827773     18.922786      171.81041    
    217000   1.026161       19.209139      171.81576    
    218000   1.0009604      19.063824      171.62016    
    219000   1.0006151      18.581724      171.42383    
    220000   0.92212102     18.934172      171.16155    
    221000   0.97669202     19.241599      170.94064    
    222000   1.0146977      19.195818      170.80751    
    223000   0.98299766     18.919708      170.63249    
    224000   1.0106225      19.336904      170.32066    
    225000   0.98859268     19.115707      170.30689    
    226000   1.0331066      19.331471      169.96856    
    227000   1.0089526      19.220366      169.84171    
    228000   1.0188169      18.934638      169.57162    
    229000   0.9656667      19.095325      169.31922    
    230000   0.99922421     18.771397      169.26456    
    231000   1.0111264      19.003588      169.10526    
    232000   1.0101918      19.046193      169.02789    
    233000   0.99640609     18.589443      168.84577    
    234000   0.99789787     18.789364      168.60686    
    235000   0.99445268     18.414514      168.43831    
    236000   0.93782491     18.986025      168.14415    
    237000   1.0000965      19.0915        168.10492    
    238000   1.0315313      18.831521      168.09649    
    239000   1.0047913      18.679649      167.62451    
    240000   1.0241542      19.353723      167.26214    
    241000   1.0104781      18.998167      167.23095    
    242000   0.99826208     19.201317      167.08686    
    243000   0.98660054     18.925858      167.00554    
    244000   1.0014873      18.578939      166.78247    
    245000   0.99478708     19.208858      166.72926    
    246000   1.0262135      19.204877      166.71167    
    247000   1.0344821      19.030813      166.53607    
    248000   1.0562057      19.570019      166.4785     
    249000   0.99569427     19.216404      166.3797     
    250000   0.9757124      18.711678      165.98064    
    251000   0.96214846     19.189285      165.78494    
    252000   1.025989       18.892073      165.79953    
    253000   0.99904444     18.557353      165.55497    
    254000   1.0387156      18.944103      165.29734    
    255000   0.98744928     18.832601      165.01044    
    256000   1.0186784      19.057049      164.98779    
    257000   1.012649       19.138335      165.00854    
    258000   0.9978081      18.554947      164.80301    
    259000   1.0121406      19.002641      164.58432    
    260000   1.0231979      19.06455       164.41013    
    261000   1.0285056      19.002937      164.2161     
    262000   1.022666       19.520202      164.02146    
    263000   0.99597671     18.871921      163.97675    
    264000   1.0234742      18.494126      163.72948    
    265000   0.97844693     18.955269      163.67417    
    266000   0.96266062     19.329327      163.28372    
    267000   0.97771166     18.911138      163.03658    
    268000   0.98256262     18.831686      162.8791     
    269000   0.97234967     18.261142      162.47214    
    270000   1.0440724      19.075815      162.01291    
    271000   1.0187548      19.180845      161.92273    
    272000   0.99494113     19.31724       161.5869     
    273000   0.98240316     18.652149      161.51037    
    274000   0.97585566     19.264349      161.4863     
    275000   1.009983       18.752176      161.30305    
    276000   1.0235361      19.144561      161.12016    
    277000   1.0037893      18.877383      160.72421    
    278000   0.99004294     18.169709      160.54872    
    279000   0.98937179     19.177416      160.39279    
    280000   1.0040764      18.647177      160.39435    
    281000   1.0207307      19.758174      160.51624    
    282000   0.98993545     18.978806      160.24578    
    283000   0.98736624     18.710719      160.07826    
    284000   1.0208751      19.012326      160.1182     
    285000   0.96920015     18.958552      159.94934    
    286000   1.0020398      18.992584      159.91328    
    287000   1.018265       19.229827      159.78633    
    288000   0.98963765     18.684395      159.68667    
    289000   1.0063347      18.980137      159.50443    
    290000   1.0197516      18.943565      159.37381    
    291000   1.0229026      19.428519      159.39943    
    292000   1.0227927      18.99822       159.44367    
    293000   0.99407291     19.098376      159.32419    
    294000   0.99319964     19.108677      159.26555    
    295000   1.0122381      18.789584      159.22793    
    296000   1.0030244      19.297623      159.27109    
    297000   0.99020262     19.089543      159.13439    
    298000   0.9895663      18.911807      159.03077    
    299000   0.96131725     18.981533      159.02425    
    300000   0.98822184     18.904444      158.8977     
    301000   0.99961428     19.45844       158.65743    
    302000   0.96974737     19.395789      158.5956     
    303000   0.9691774      19.03268       158.59634    
    304000   1.0098391      18.997272      158.81003    
    305000   1.0266472      18.955676      158.56783    
    306000   0.98401569     19.02336       158.24948    
    307000   1.0257669      18.799579      157.97607    
    308000   1.0335355      18.677188      157.85205    
    309000   1.0154439      18.775014      157.81684    
    310000   0.9867555      18.726281      157.41768    
    311000   0.98881166     18.86953       157.39618    
    312000   1.0099868      19.309768      157.21952    
    313000   1.0039062      18.665605      157.26992    
    314000   1.0327104      19.331708      156.84216    
    315000   0.98759948     19.324649      156.7849     
    316000   1.0097678      18.646312      156.74584    
    317000   0.98656209     18.50518       156.54043    
    318000   1.0132208      19.016802      156.32506    
    319000   1.0620562      18.896023      156.18472    
    320000   0.98574202     18.664956      156.1132     
    321000   0.98660017     19.355209      155.83921    
    322000   0.99914508     19.19923       155.61706    
    323000   1.0264188      19.210925      155.37762    
    324000   1.0090458      18.770743      155.28987    
    325000   0.98301833     18.952587      155.12474    
    326000   0.97904749     19.178974      155.1158     
    327000   1.0436505      19.105572      155.22862    
    328000   1.0158886      19.125572      155.2286     
    329000   1.0369903      18.762303      155.16769    
    330000   1.0265626      18.899613      155.15343    
    331000   0.97793523     19.114726      155.00101    
    332000   0.98739109     18.888148      154.84659    
    333000   0.99193328     18.621681      154.76519    
    334000   0.97372057     18.606129      154.71866    
    335000   1.0069649      19.014727      154.40171    
    336000   0.99933791     19.258304      154.15374    
    337000   0.98204799     18.97079       154.05495    
    338000   1.0071317      18.929882      153.86597    
    339000   0.9891207      19.121111      153.76025    
    340000   0.9768851      19.090713      153.55889    
    341000   1.0096072      19.054666      153.54379    
    342000   0.99978098     18.751063      153.40268    
    343000   0.95866688     18.523455      153.35954    
    344000   1.0006749      19.294935      153.42254    
    345000   0.9916493      18.647255      153.35605    
    346000   0.99534769     18.557428      153.26966    
    347000   0.97405724     18.85155       153.25729    
    348000   1.0063018      18.39551       153.11171    
    349000   1.0218477      19.073123      152.92432    
    350000   0.99937909     18.255246      152.99528    
    351000   1.0085316      19.529118      152.59148    
    352000   0.99343166     18.593837      152.60412    
    353000   1.024044       18.682698      152.46944    
    354000   0.98506364     19.241919      152.33873    
    355000   0.97299246     19.787951      152.29306    
    356000   1.0302526      18.904189      152.115      
    357000   0.98435493     19.157526      151.91729    
    358000   0.96735651     18.723044      151.75165    
    359000   0.99810297     19.028318      151.75093    
    360000   1.0098963      18.722111      151.69405    
    361000   1.0508084      19.353818      151.60579    
    362000   1.044296       19.043103      151.4248     
    363000   0.9879007      18.746804      151.41877    
    364000   1.0371216      18.937756      151.55198    
    365000   0.99782575     18.404025      151.29319    
    366000   0.95819757     18.491905      151.24368    
    367000   0.98025756     18.688484      151.18697    
    368000   0.97355965     19.017723      151.27087    
    369000   0.99174812     18.699242      151.12078    
    370000   1.0278589      18.740503      150.9139     
    371000   1.017826       19.181653      150.6535     
    372000   1.0322797      18.825642      150.64187    
    373000   0.9913385      19.187335      150.5168     
    374000   0.99657536     18.951871      150.26106    
    375000   0.97794088     18.399112      150.16811    
    376000   1.0083542      18.386029      150.00666    
    377000   1.026174       19.40992       149.87301    
    378000   0.9644932      18.874577      149.81567    
    379000   1.0287682      19.027417      149.84612    
    380000   1.0313702      18.284566      149.65634    
    381000   1.0098505      18.891924      149.50308    
    382000   1.0461143      19.231828      149.6918     
    383000   0.9858317      19.00538       149.4911     
    384000   0.9743537      18.687171      149.26234    
    385000   0.99357911     18.28108       148.94667    
    386000   1.0065088      18.633727      148.91383    
    387000   0.98426543     18.794534      148.78758    
    388000   0.99809053     18.843563      148.4924     
    389000   1.0107253      18.944768      148.38338    
    390000   0.98548829     18.984096      148.27357    
    391000   0.99299897     18.464209      148.08194    
    392000   1.0094357      19.160783      147.83307    
    393000   0.98697567     18.992187      147.76675    
    394000   0.98035397     18.356815      147.70352    
    395000   1.0117175      18.704863      147.56616    
    396000   1.0078775      18.757099      147.57776    
    397000   1.0081769      18.896431      147.38349    
    398000   1.003122       18.802929      147.23753    
    399000   1.0582639      18.822008      147.07532    
    400000   1.0115984      18.825201      147.13004    
    401000   0.94433691     18.674347      146.94983    
    402000   1.0052426      19.192167      146.85209    
    403000   1.0086389      18.840459      146.79275    
    404000   0.99092121     18.836104      146.58246    
    405000   0.97755525     18.659191      146.37947    
    406000   0.99957182     18.615642      146.24468    
    407000   0.97610118     18.678211      146.0788     
    408000   0.99218551     19.673793      145.90287    
    409000   1.0178047      18.747846      145.93603    
    410000   1.0062971      18.811009      145.83186    
    411000   1.0018727      18.855302      145.74211    
    412000   0.98577864     19.02089       145.71081    
    413000   0.99712232     19.195228      145.58948    
    414000   0.95828542     19.028378      145.56248    
    415000   0.98323993     18.875181      145.57704    
    416000   1.0179684      18.806863      145.47345    
    417000   0.99192847     18.450915      145.31997    
    418000   0.99481275     19.271745      145.37338    
    419000   1.0253545      19.267538      145.23484    
    420000   1.0395301      18.951716      144.84303    
    421000   1.0418277      18.9946        144.58047    
    422000   0.96819738     18.860105      144.51617    
    423000   0.95749367     18.841822      144.53139    
    424000   1.0056969      19.208189      144.61222    
    425000   1.0072816      18.767995      144.41266    
    426000   0.97938987     18.785501      144.38725    
    427000   1.0090854      18.217062      144.03833    
    428000   0.99248526     18.808854      143.92323    
    429000   1.0056946      18.548998      143.81542    
    430000   0.99946658     19.082694      143.64387    
    431000   0.96214631     18.841683      143.64654    
    432000   1.0167857      19.106883      143.68925    
    433000   1.0015681      18.823233      143.55476    
    434000   1.02057        19.541311      143.29627    
    435000   1.0001679      18.666819      143.09208    
    436000   1.014792       19.011086      142.68104    
    437000   1.0559333      18.801393      142.60186    
    438000   0.98295542     18.733398      142.56775    
    439000   1.0231005      18.690336      142.48664    
    440000   1.0590731      19.311471      142.25469    
    441000   0.93543738     18.763882      141.98901    
    442000   0.99243823     18.544046      141.7271     
    443000   0.96378675     19.155152      141.49112    
    444000   0.99388173     18.783979      141.17409    
    445000   1.0310309      18.920225      141.09188    
    446000   1.0128311      19.228754      140.88503    
    447000   0.9815506      19.119521      140.9248     
    448000   0.94650606     18.920351      140.95284    
    449000   0.98027008     18.851518      140.66148    
    450000   0.94348406     18.62798       140.56796    
    451000   0.9942152      18.891264      140.42369    
    452000   1.0113482      18.943839      140.18456    
    453000   0.96694256     19.133586      140.11262    
    454000   1.011288       19.106299      140.11388    
    455000   1.0166996      18.699165      139.81955    
    456000   0.98518653     19.200093      139.74408    
    457000   0.99137876     18.948907      139.66751    
    458000   1.0376726      18.996488      139.60732    
    459000   1.0101637      19.190883      139.46496    
    460000   1.0057124      18.845715      139.33033    
    461000   0.96811499     18.761079      139.30906    
    462000   1.001408       18.8539        139.20935    
    463000   1.0250548      18.888065      139.21538    
    464000   0.95785817     18.692128      138.9878     
    465000   0.96947391     18.724162      138.92428    
    466000   0.97548434     18.835695      138.7866     
    467000   1.0274437      18.795902      138.70291    
    468000   1.0427628      19.034616      138.65952    
    469000   1.0331763      18.760357      138.34513    
    470000   1.01996        18.773524      138.08009    
    471000   0.97825105     18.969622      138.12482    
    472000   0.99313629     19.080022      137.99289    
    473000   0.97745073     18.50482       138.08258    
    474000   1.0081613      18.7008        138.02237    
    475000   1.0002942      19.028469      138.01737    
    476000   0.98392429     19.037376      137.72601    
    477000   1.0101228      19.121876      137.57543    
    478000   1.0088593      18.714362      137.33903    
    479000   0.95262494     18.755342      137.23332    
    480000   1.0129609      18.908007      137.22046    
    481000   0.99720656     18.485968      137.19595    
    482000   1.0681858      19.228086      137.25765    
    483000   1.011937       18.847131      136.86927    
    484000   1.0264676      18.662528      136.59558    
    485000   0.99130484     19.12169       136.31234    
    486000   0.96296902     18.3834        136.25534    
    487000   0.97995999     18.892104      136.15912    
    488000   0.97585359     18.322346      136.11976    
    489000   0.97751182     18.87267       136.09865    
    490000   0.95098177     18.67151       135.96073    
    491000   1.0038481      18.631882      135.92396    
    492000   0.97577922     19.023434      135.7531     
    493000   0.9853235      18.209896      135.5047     
    494000   1.0161378      19.17862       135.09683    
    495000   0.98439503     18.729174      134.92763    
    496000   1.0007113      18.961367      134.92503    
    497000   0.98066905     18.79674       134.77963    
    498000   1.0178068      18.600269      134.6397     
    499000   0.97020521     19.089537      134.50317    
    500000   1.0544762      19.06416       134.32219    
    501000   1.0313966      18.915621      134.35549    
    502000   0.97857966     19.011077      134.32148    
    503000   1.0259481      18.593852      134.25434    
    504000   1.0081627      19.009633      134.47133    
    505000   1.0462522      19.401438      134.47069    
    506000   1.0350295      18.918834      134.38513    
    507000   1.0312323      18.981699      134.26533    
    508000   1.0024213      18.958243      134.11255    
    509000   1.0102414      18.740692      134.28966    
    510000   0.95777238     18.870702      134.12406    
    511000   1.0291384      18.945909      134.00916    
    512000   1.0293423      18.442316      134.08215    
    513000   0.98187452     18.863437      133.90606    
    514000   1.0288046      18.641019      133.73572    
    515000   0.95605355     18.563905      133.64575    
    516000   0.96496535     18.84213       133.53124    
    517000   0.9564119      18.482181      133.24069    
    518000   1.0266625      18.777957      133.28213    
    519000   0.98840966     19.289762      133.52877    
    520000   1.0198243      18.429589      133.38322    
    521000   1.0191568      18.856667      133.07874    
    522000   0.96021331     18.737504      133.09764    
    523000   0.98797719     18.640126      133.11962    
    524000   1.03055        18.702775      132.83507    
    525000   0.9971084      18.086931      132.68075    
    526000   0.99021628     18.84503       132.60429    
    527000   1.0080932      19.194839      132.32507    
    528000   0.99634773     18.722903      132.0521     
    529000   1.0052551      18.837981      132.06279    
    530000   0.99457208     18.726045      132.11303    
    531000   1.0065512      18.504058      131.99795    
    532000   1.047608       19.404378      131.68877    
    533000   0.97830604     18.669041      131.56174    
    534000   1.0135169      18.609872      131.35571    
    535000   1.0056293      18.637064      131.38559    
    536000   1.00985        18.228905      131.26166    
    537000   1.0285027      18.959796      130.98542    
    538000   1.005062       18.689198      130.85943    
    539000   0.97099322     18.079371      130.63877    
    540000   0.98885176     18.856174      130.46364    
    541000   0.97893358     19.331631      130.39132    
    542000   1.0084356      18.654682      130.2531     
    543000   1.0351329      19.265637      130.04099    
    544000   1.0291294      18.384042      130.03541    
    545000   1.03391        18.802873      129.93564    
    546000   1.0084212      18.806355      129.76399    
    547000   0.97487756     19.150348      129.68374    
    548000   1.0046906      18.777355      129.61044    
    549000   0.9935708      18.885033      129.54856    
    550000   0.93566399     18.632545      129.61921    
    551000   0.9915821      18.696699      129.41562    
    552000   1.0069679      18.935681      129.26898    
    553000   1.0562382      19.430243      129.15641    
    554000   0.98446628     17.870518      129.12864    
    555000   1.0074301      19.126088      129.18722    
    556000   0.97895224     18.2692        128.86867    
    557000   0.97274537     18.189423      128.73873    
    558000   1.0158936      19.039281      128.55358    
    559000   0.95503237     18.096264      128.40683    
    560000   1.0188846      18.634682      128.21575    
    561000   1.0142976      18.596731      128.08161    
    562000   0.99378522     18.758966      127.92913    
    563000   1.0038609      18.48207       127.72195    
    564000   1.0367327      18.867565      127.27121    
    565000   0.98725529     18.769379      127.18963    
    566000   0.95625088     18.604058      127.20557    
    567000   1.0183405      18.921555      127.09432    
    568000   1.0379934      19.015234      127.04372    
    569000   1.0085104      19.013365      126.97062    
    570000   0.97637965     18.968802      127.06582    
    571000   1.0070678      18.990978      126.98535    
    572000   1.0003446      18.650081      126.72384    
    573000   0.9636075      18.792282      126.43932    
    574000   1.0085446      18.678965      126.24142    
    575000   0.96592564     18.208782      126.19224    
    576000   1.01248        18.932166      126.30558    
    577000   0.99449449     18.542346      126.22379    
    578000   0.99658634     18.593435      126.14024    
    579000   1.0017628      18.281357      125.95157    
    580000   1.0152551      18.801178      125.84144    
    581000   1.0187576      18.67479       125.88907    
    582000   1.0133674      18.771325      125.82048    
    583000   0.97429471     18.757335      125.75956    
    584000   0.9985669      18.350023      125.86836    
    585000   0.98248414     18.562495      125.85768    
    586000   1.0029324      18.774288      125.90451    
    587000   0.98821352     18.639239      125.78048    
    588000   0.97430428     18.447545      125.4671     
    589000   1.0214187      18.632038      125.20485    
    590000   1.0365821      18.885709      125.2859     
    591000   0.99543512     19.010922      125.22842    
    592000   1.0255843      18.372142      124.90777    
    593000   0.98844538     18.933703      124.79542    
    594000   1.0197081      18.692929      124.92826    
    595000   1.0808652      18.637939      124.9723     
    596000   1.0278656      18.787139      124.88849    
    597000   0.99758633     18.474385      124.54721    
    598000   1.0177512      18.501076      124.5653     
    599000   0.96662528     18.647728      124.46004    
    600000   1.0165982      18.769103      124.40079    
    601000   0.98676002     18.478278      124.2454     
    602000   0.99025204     18.244693      124.19309    
    603000   0.99598439     18.939015      124.11649    
    604000   1.0117174      18.515483      123.98581    
    605000   0.99382537     18.453467      123.86834    
    606000   0.99935639     18.777664      123.63125    
    607000   1.0113628      18.423162      123.58035    
    608000   1.029198       18.987294      123.42678    
    609000   0.97077919     18.172781      123.21895    
    610000   0.98687351     18.387725      123.16968    
    611000   1.0414941      18.725437      122.87777    
    612000   1.009114       18.554078      122.80408    
    613000   1.0101591      17.829717      122.59775    
    614000   0.94963614     18.582475      122.50325    
    615000   0.94646672     18.368296      122.51721    
    616000   1.0024053      18.669528      122.28513    
    617000   0.99393796     18.812379      122.11786    
    618000   1.0264125      18.078867      121.98981    
    619000   0.99523909     18.620512      121.75123    
    620000   0.9726988      18.574291      121.53497    
    621000   0.96623776     18.427844      121.50949    
    622000   0.98814958     18.163714      121.47789    
    623000   0.98422117     18.303166      121.5275     
    624000   0.99531939     18.476342      121.37919    
    625000   0.99218713     18.323627      121.3557     
    626000   0.99022638     18.734531      121.34782    
    627000   0.99726083     18.577361      121.28519    
    628000   1.0219077      18.690745      120.91939    
    629000   0.96903528     19.159751      120.57895    
    630000   0.98697507     18.621323      120.77251    
    631000   0.98676054     18.566666      120.50093    
    632000   1.0184506      18.505279      120.49569    
    633000   0.96067627     18.365645      120.31112    
    634000   0.9841497      18.310877      120.12479    
    635000   1.0108245      18.379292      120.35068    
    636000   1.0073126      18.182961      120.28824    
    637000   0.99781806     18.579255      120.12198    
    638000   1.0035868      18.448793      119.99333    
    639000   0.98727052     18.496308      119.8874     
    640000   1.0039989      18.160656      119.81561    
    641000   1.0245534      18.175766      119.51854    
    642000   0.99200486     18.689785      119.40954    
    643000   1.0454513      18.182101      119.42085    
    644000   0.97635086     18.419393      119.20791    
    645000   0.97521044     18.320583      119.28278    
    646000   0.97399265     18.132272      119.25816    
    647000   0.98200113     18.850098      119.18917    
    648000   0.96541531     18.075835      119.05929    
    649000   1.0159031      18.293107      118.95482    
    650000   0.9974769      18.35129       119.10878    
    651000   1.0432438      18.730296      119.04928    
    652000   1.0176669      18.329311      118.97922    
    653000   0.96054121     18.575403      118.93739    
    654000   0.97785563     18.860874      118.93543    
    655000   1.0160022      18.583169      118.77703    
    656000   1.0320759      18.909193      118.64375    
    657000   1.0128893      18.98211       118.49198    
    658000   1.018915       18.697373      118.38025    
    659000   1.0371945      18.602535      118.36241    
    660000   0.9903556      18.204126      118.14841    
    661000   0.98594759     18.609233      118.00382    
    662000   1.0195133      18.342557      117.79813    
    663000   1.014455       18.612244      117.74446    
    664000   0.99446665     18.204294      117.59281    
    665000   1.0199973      18.427588      117.45145    
    666000   1.0246114      18.711297      117.40039    
    667000   1.0098109      18.471901      117.2333     
    668000   0.98743672     18.895279      117.13915    
    669000   1.0025919      18.45094       116.92805    
    670000   0.98108189     18.538864      116.90441    
    671000   0.96088217     18.691266      116.77937    
    672000   1.0054322      18.275739      116.56148    
    673000   0.97736648     18.107608      116.35709    
    674000   1.0328179      18.708141      116.60436    
    675000   1.0198376      18.061583      116.25901    
    676000   0.99354979     18.177532      116.27073    
    677000   0.98662367     18.61776       116.23454    
    678000   1.0169616      18.635577      116.19495    
    679000   1.0213617      18.811235      115.98823    
    680000   1.0236787      18.701706      115.96199    
    681000   1.0259957      18.965842      115.95107    
    682000   1.0111194      18.625084      116.0452     
    683000   0.9967582      18.322226      115.81206    
    684000   1.0245344      18.71083       115.49489    
    685000   1.0192902      18.117781      115.50298    
    686000   0.97664876     18.335464      115.23769    
    687000   1.0197647      18.958169      115.36633    
    688000   0.99507793     18.979347      115.23722    
    689000   0.95576713     18.907376      115.13231    
    690000   0.94753955     18.336556      115.12352    
    691000   0.97621288     18.506609      115.02351    
    692000   0.99958502     18.791023      114.92332    
    693000   0.97658971     18.628308      114.84297    
    694000   0.98346111     18.459924      114.77632    
    695000   1.0111657      18.615216      114.69238    
    696000   0.98835582     18.566118      114.43548    
    697000   0.96339626     17.940697      114.51565    
    698000   1.0181674      18.725762      114.53218    
    699000   0.99748577     18.494356      114.60039    
    700000   0.96899406     18.080047      114.65364    
    701000   0.99840064     18.420984      114.74193    
    702000   1.0103881      18.579791      114.58395    
    703000   1.0092153      18.907294      114.47502    
    704000   0.98870379     18.51753       114.46541    
    705000   1.0135229      18.808378      114.49088    
    706000   1.0142737      18.801943      114.37421    
    707000   1.010659       18.20495       114.37473    
    708000   1.0336766      18.647462      114.56817    
    709000   0.98517831     18.257121      114.60139    
    710000   0.98213836     18.279883      114.50753    
    711000   0.99109283     18.267697      114.40561    
    712000   0.98408379     18.734071      114.31069    
    713000   0.99964969     18.363011      114.26796    
    714000   1.0255689      18.914162      114.06208    
    715000   0.96430376     18.188843      113.9595     
    716000   1.0202488      18.454068      113.81816    
    717000   0.99889851     18.237048      113.85068    
    718000   1.047597       18.171722      113.66449    
    719000   0.99901986     18.096678      113.52258    
    720000   0.95616657     18.614665      113.54629    
    721000   0.99922269     18.327928      113.33966    
    722000   1.0151207      18.679474      113.28012    
    723000   0.97577724     18.500845      113.30742    
    724000   1.0143305      18.136111      113.13831    
    725000   0.98367257     18.749484      113.3189     
    726000   0.98477417     18.736368      113.19225    
    727000   1.0053966      18.431554      113.06819    
    728000   1.0205873      18.413689      112.92237    
    729000   1.0024461      18.030052      112.952      
    730000   0.99593542     17.951939      113.10469    
    731000   0.99715369     18.852691      113.11538    
    732000   1.0166888      18.629656      112.95702    
    733000   0.98445282     18.784365      112.72908    
    734000   1.0295436      18.165893      112.61696    
    735000   0.99468005     18.639401      112.6302     
    736000   1.0428755      18.289629      112.53608    
    737000   1.0246727      18.404719      112.48053    
    738000   0.99235239     18.458882      112.22769    
    739000   0.98916437     18.918716      112.01036    
    740000   1.0230657      18.347203      111.99865    
    741000   1.0135749      18.641621      111.98764    
    742000   0.99549217     18.816512      111.92168    
    743000   0.95372414     17.882294      111.70403    
    744000   1.0282731      18.318577      111.55053    
    745000   1.0187958      18.280489      111.41375    
    746000   1.0032072      18.714012      111.44292    
    747000   1.0222782      18.47757       111.2961     
    748000   1.0156466      17.919286      111.31221    
    749000   1.0359177      18.269217      111.27566    
    750000   1.0049233      18.307687      111.27877    
    751000   1.0071067      18.617968      111.13077    
    752000   1.0057599      17.991814      111.03061    
    753000   1.0152708      18.084893      111.06193    
    754000   0.99714979     18.392239      110.90029    
    755000   1.012414       18.824534      110.80489    
    756000   0.9999166      18.621386      110.72117    
    757000   0.98722238     18.170485      110.7733     
    758000   0.99444674     18.454712      110.73546    
    759000   1.0241544      18.174297      110.54573    
    760000   0.9668576      18.07847       110.45746    
    761000   1.0432602      18.511799      110.60085    
    762000   1.0125189      18.433631      110.40455    
    763000   1.0231184      18.71267       110.29317    
    764000   1.006036       18.107724      110.3127     
    765000   0.98577587     18.319968      110.17054    
    766000   1.0074983      18.505795      110.2161     
    767000   1.0361164      18.23047       109.95743    
    768000   0.99491238     18.095254      109.68427    
    769000   1.0060661      18.036394      109.65407    
    770000   1.0137125      18.424255      109.70392    
    771000   0.98070925     18.405016      109.67322    
    772000   0.99006813     18.141559      109.37993    
    773000   0.97339083     18.488071      109.35073    
    774000   1.0162657      18.284231      109.24251    
    775000   1.0178799      18.58926       109.22438    
    776000   0.97459128     18.054118      109.11792    
    777000   0.98739396     18.307077      109.00616    
    778000   1.0191706      18.26347       108.87975    
    779000   1.0085055      18.348809      108.59388    
    780000   0.98449743     18.511785      108.43455    
    781000   1.0192629      18.931928      108.399      
    782000   1.0443267      18.28569       108.27202    
    783000   1.063981       18.831881      108.22009    
    784000   0.99865744     18.328052      108.14722    
    785000   1.0191022      18.712888      108.13032    
    786000   1.0257301      18.365847      107.93995    
    787000   1.0240115      18.286539      107.78366    
    788000   0.9949745      18.137102      107.58403    
    789000   1.0304352      18.396172      107.35396    
    790000   1.0059334      18.274395      107.14399    
    791000   0.97778411     18.348908      107.01161    
    792000   1.0490744      18.879957      106.81371    
    793000   1.0179045      18.410994      106.68938    
    794000   1.0259519      18.880075      106.61039    
    795000   1.0393475      18.314948      106.60309    
    796000   1.024035       18.817931      106.28122    
    797000   0.98660612     18.308822      106.0791     
    798000   0.99475158     18.433232      105.85455    
    799000   0.9864302      18.16071       105.64911    
    800000   0.97619303     18.410241      105.67016    
    801000   0.99432849     18.220201      105.76174    
    802000   1.0397266      18.235234      105.80896    
    803000   1.0196476      18.609721      105.62095    
    804000   1.0475688      18.868695      105.49033    
    805000   0.98116453     17.93173       105.54142    
    806000   1.0121906      18.377148      105.42046    
    807000   0.99361547     18.40681       105.14237    
    808000   0.94956393     18.519458      105.00895    
    809000   1.020182       18.521875      104.93864    
    810000   1.0026074      18.052221      104.97561    
    811000   1.0030941      17.799731      104.88662    
    812000   0.94706024     17.975714      104.6108     
    813000   0.99764716     18.256581      104.3973     
    814000   1.0006065      18.055335      104.51137    
    815000   0.98326935     18.7169        104.50497    
    816000   1.0326677      18.240276      104.44249    
    817000   0.99317058     18.530364      104.47361    
    818000   1.0297599      18.393685      104.35479    
    819000   0.9984054      18.048321      104.37161    
    820000   0.98205065     18.672511      104.20106    
    821000   1.0009821      18.434431      103.8385     
    822000   1.0340824      18.3101        103.66584    
    823000   1.0113246      18.563443      103.29988    
    824000   1.0016968      18.760456      103.21149    
    825000   0.99319027     18.763866      103.26579    
    826000   0.99548693     18.314603      103.33171    
    827000   1.0256278      18.562213      103.28123    
    828000   0.99535417     18.230172      103.11994    
    829000   0.99344764     18.120889      102.91077    
    830000   0.98114605     18.016111      102.8469     
    831000   0.95792469     18.503012      102.95196    
    832000   1.0100771      18.41548       102.78458    
    833000   1.0074758      18.852575      102.71245    
    834000   1.001081       18.305162      102.77424    
    835000   1.027916       18.228055      102.72153    
    836000   0.96877467     17.999293      102.92988    
    837000   0.98064474     18.635069      102.91921    
    838000   1.0036775      18.515203      102.89347    
    839000   1.0319783      18.188714      102.77373    
    840000   0.97580452     17.99703       102.65432    
    841000   0.98102924     18.402615      102.68284    
    842000   1.0072279      18.400805      102.72712    
    843000   0.97368681     17.948784      102.54882    
    844000   0.99300202     17.824207      102.64542    
    845000   0.98328157     18.006109      102.459      
    846000   0.99593193     18.4806        102.37285    
    847000   0.99461861     18.319386      102.2682     
    848000   0.96792592     17.915919      101.97963    
    849000   0.95788068     18.069765      102.04725    
    850000   1.0028926      18.210283      101.89043    
    851000   0.99119117     18.537595      101.87169    
    852000   1.0421657      18.23005       101.82751    
    853000   1.0044899      18.017148      101.78539    
    854000   0.96681504     18.236144      101.6902     
    855000   1.0237224      17.7189        101.64115    
    856000   1.0188582      18.638388      101.56243    
    857000   0.99862558     18.490495      101.31173    
    858000   1.0270331      18.333293      101.22004    
    859000   1.0465539      17.990127      101.02017    
    860000   1.0323866      18.59348       100.90678    
    861000   1.0296174      18.149909      100.69675    
    862000   1.0048661      19.115         100.46933    
    863000   0.99346739     18.022776      100.34228    
    864000   1.0230499      18.528231      100.25882    
    865000   1.0188191      17.604775      100.37969    
    866000   1.0031368      18.299824      100.46268    
    867000   1.0284032      18.491417      100.40129    
    868000   0.99504082     18.310236      100.2056     
    869000   1.0447034      18.708433      99.880858    
    870000   0.96384876     18.710313      99.854608    
    871000   1.0183398      18.71424       99.703743    
    872000   0.99134001     18.43931       99.895716    
    873000   0.95715652     18.136594      100.00455    
    874000   1.0416052      18.481839      99.854151    
    875000   1.0049252      18.455175      99.750868    
    876000   1.0117353      18.110873      99.521134    
    877000   1.0053664      18.318599      99.509153    
    878000   1.0153211      17.752199      99.418911    
    879000   1.0078179      18.24463       99.35599     
    880000   0.98705725     18.254036      99.310681    
    881000   1.024261       17.512291      99.073064    
    882000   1.030148       18.411882      98.694228    
    883000   0.99184209     18.159836      98.675337    
    884000   1.0205795      18.103625      98.582431    
    885000   1.0201856      18.673905      98.703766    
    886000   1.0451052      18.227104      98.435761    
    887000   1.0294483      18.377918      98.345824    
    888000   0.98961351     18.640108      98.331018    
    889000   0.9905168      17.724399      98.201694    
    890000   0.98172758     18.15042       98.213975    
    891000   0.99304431     17.970725      98.126884    
    892000   1.0165447      17.837332      97.831605    
    893000   1.0375494      17.923267      97.701108    
    894000   1.0091647      18.085369      97.698313    
    895000   1.0135515      18.562025      97.732457    
    896000   1.0118847      18.573335      97.699516    
    897000   0.98260976     17.945493      97.618361    
    898000   1.0240005      18.171609      97.31645     
    899000   1.0132561      18.23354       97.100413    
    900000   1.0101244      18.32238       96.985355    
    901000   0.98650855     18.720678      96.898517    
    902000   1.0125395      18.521598      96.866598    
    903000   0.98617687     18.541948      96.8488      
    904000   1.0297271      18.107712      96.818883    
    905000   0.98749524     17.570153      96.665453    
    906000   1.0495933      18.221475      96.686081    
    907000   0.99207416     18.383185      96.610251    
    908000   1.0004061      18.546863      96.575182    
    909000   1.0124601      18.126995      96.467509    
    910000   0.97512        18.184269      96.52038     
    911000   0.97644474     17.780114      96.331896    
    912000   0.99251592     17.580329      96.147217    
    913000   1.0259442      18.037024      96.143913    
    914000   0.98826143     18.120564      96.094847    
    915000   1.0178377      17.976885      95.857553    
    916000   0.99170018     17.659263      95.74602     
    917000   1.0148939      18.390997      95.722223    
    918000   0.99493741     18.383542      95.623924    
    919000   0.98187597     18.229982      95.511177    
    920000   0.9608322      18.26493       95.436015    
    921000   1.0129573      17.926771      95.478356    
    922000   1.0424965      17.765783      95.42909     
    923000   1.0179031      18.444202      95.326689    
    924000   0.98354826     18.258372      95.306112    
    925000   1.0208696      18.125324      95.194818    
    926000   0.99267948     18.125624      95.237342    
    927000   1.0233363      17.720083      95.207224    
    928000   0.95837726     18.215659      95.368286    
    929000   1.0221413      18.152256      95.2163      
    930000   1.0188601      18.084534      95.087894    
    931000   1.0156485      18.075682      94.990925    
    932000   0.99118305     18.104634      94.714205    
    933000   1.0123204      18.32775       94.798081    
    934000   1.0385697      18.484918      94.736958    
    935000   0.99177        18.042421      94.590285    
    936000   1.0383846      18.759245      94.779423    
    937000   0.9852893      18.257232      94.860795    
    938000   1.0184562      18.182014      94.648585    
    939000   1.0655187      17.42766       94.447622    
    940000   1.0086803      17.951082      94.282657    
    941000   1.0234929      17.849976      94.111845    
    942000   1.0199319      18.453155      94.200585    
    943000   0.98286004     17.80971       94.275118    
    944000   1.0368918      18.050713      94.24423     
    945000   0.99800117     17.921378      94.149954    
    946000   0.97457427     18.091854      94.022085    
    947000   1.0391194      18.133413      93.825352    
    948000   1.000416       18.241043      93.615008    
    949000   0.98471888     18.139103      93.797063    
    950000   1.0337137      18.251206      93.755662    
    951000   1.0340459      18.195263      93.477948    
    952000   1.0553012      17.893301      93.363195    
    953000   1.0066909      18.189018      93.285588    
    954000   1.0183323      18.48575       93.188002    
    955000   1.0228515      17.656511      93.051234    
    956000   0.98013205     18.168488      92.716465    
    957000   1.0295438      18.421587      92.761037    
    958000   0.97528833     17.874603      92.705672    
    959000   1.0228434      17.95558       92.633696    
    960000   1.0136215      17.990267      92.588865    
    961000   0.97726789     17.793719      92.614724    
    962000   1.0244111      18.351882      92.421136    
    963000   1.0215999      18.161703      92.189233    
    964000   1.033067       18.158986      92.227017    
    965000   1.0346148      18.899591      92.056908    
    966000   1.0347888      18.247987      91.920411    
    967000   1.0169395      17.760378      91.804966    
    968000   1.0081792      18.036443      91.568985    
    969000   1.0058843      17.812427      91.22893     
    970000   1.0215643      18.39149       91.046552    
    971000   1.0184282      18.160148      90.912115    
    972000   1.0270496      18.250399      90.827635    
    973000   1.0281388      18.428583      91.053445    
    974000   1.0131804      18.090564      91.01942     
    975000   0.98894044     18.695544      90.988634    
    976000   1.0179743      17.964055      90.875505    
    977000   1.0074115      17.580193      90.737371    
    978000   0.9793017      17.757561      90.80584     
    979000   0.99114634     18.176869      90.493631    
    980000   1.0073704      18.422192      90.283441    
    981000   1.0072418      18.351141      90.207596    
    982000   1.010808       17.988228      90.094598    
    983000   1.0230409      18.352454      89.88495     
    984000   1.0246459      18.207402      89.750681    
    985000   1.0156999      17.89151       89.701646    
    986000   1.0088257      17.895899      89.6327      
    987000   1.0012777      18.308415      89.433422    
    988000   0.99509552     17.910835      89.295345    
    989000   1.0308215      18.032441      89.218164    
    990000   0.99276694     18.434729      89.125198    
    991000   1.0081245      17.815177      88.9416      
    992000   1.0167739      17.233375      88.864774    
    993000   0.99149375     18.328775      88.840452    
    994000   1.0377414      18.209969      88.786513    
    995000   1.0339756      18.018729      88.637699    
    996000   0.9790648      18.098152      88.432862    
    997000   0.99815884     18.061527      88.245235    
    998000   1.0263023      18.005259      88.013408    
    999000   0.97964895     17.510176      87.903522    
   1000000   0.96298799     17.464063      87.640203    
   1001000   0.97344394     17.963238      87.556964    
   1002000   1.0128369      18.127145      87.149582    
   1003000   1.019195       18.162886      87.359552    
   1004000   0.9654275      17.505652      87.48821     
   1005000   0.99259514     17.917729      87.585355    
   1006000   0.96603988     17.461241      87.550909    
   1007000   0.9856092      17.669425      87.562549    
   1008000   1.0124285      18.027278      87.526414    
   1009000   1.0090659      18.228138      87.420282    
   1010000   0.96654438     18.014918      87.248688    
   1011000   1.0375687      18.043487      87.230845    
   1012000   1.0180054      18.145144      87.06991     
   1013000   0.99785036     18.232781      87.09359     
   1014000   1.0122519      18.356388      86.991854    
   1015000   0.98187766     18.160388      86.739814    
   1016000   1.0162305      17.857518      86.506914    
   1017000   0.9849976      18.257688      86.28415     
   1018000   1.0029283      18.254841      86.332985    
   1019000   0.97998264     17.795031      86.387225    
   1020000   0.974592       17.94696       86.449856    
   1021000   1.0045513      18.260728      86.376586    
   1022000   0.99365992     18.418038      86.216497    
   1023000   0.96895554     18.01856       86.29494     
   1024000   1.016343       17.927641      86.19688     
   1025000   1.0248579      18.319586      86.33038     
   1026000   1.0004975      17.961348      86.343842    
   1027000   0.98811331     18.342408      86.314503    
   1028000   0.99145522     18.105242      86.280443    
   1029000   1.0400118      17.924985      85.839483    
   1030000   0.99243695     18.168375      85.580337    
   1031000   0.96970757     17.731106      85.525264    
   1032000   1.0007748      18.439264      85.309337    
   1033000   1.0330191      18.159278      85.436444    
   1034000   1.0154402      17.802985      85.457938    
   1035000   0.94232489     17.340577      85.498386    
   1036000   1.0284577      18.546472      85.295686    
   1037000   0.95672363     17.614376      85.50531     
   1038000   1.0356058      18.411404      85.652611    
   1039000   1.0141922      18.229531      85.606613    
   1040000   0.97135291     18.05805       85.577482    
   1041000   0.98415928     18.100007      85.902858    
   1042000   0.99418192     18.297448      85.850553    
   1043000   0.99021018     17.782304      85.849669    
   1044000   1.0022501      17.622871      85.564477    
   1045000   1.0081456      17.800453      85.514167    
   1046000   1.024973       17.750593      85.447006    
   1047000   1.0339283      18.076544      85.246057    
   1048000   1.0186829      18.013671      85.079993    
   1049000   0.99382209     18.077985      84.903968    
   1050000   1.0186015      18.050762      84.971028    
   1051000   1.0322142      18.112138      84.920132    
   1052000   1.0051925      18.210312      84.738951    
   1053000   0.9492933      17.724337      84.692559    
   1054000   1.0088739      17.903392      84.649068    
   1055000   0.99519016     18.092443      84.755321    
   1056000   1.0169309      17.986752      84.760022    
   1057000   1.0163603      18.345024      84.627765    
   1058000   1.0213653      17.988577      84.499014    
   1059000   1.0148807      17.596685      84.360688    
   1060000   0.97180385     17.681023      84.479196    
   1061000   1.0165621      18.399871      84.358541    
   1062000   0.99779668     18.31681       84.246689    
   1063000   0.9901993      17.442528      84.383114    
   1064000   0.97677547     18.364194      84.220652    
   1065000   1.0138057      17.921622      84.197749    
   1066000   0.98883766     18.17329       83.947415    
   1067000   1.0026554      18.146643      83.93298     
   1068000   1.0163296      18.164832      83.715245    
   1069000   1.0312288      18.079507      83.632262    
   1070000   1.0164361      18.050539      83.608279    
   1071000   0.981407       18.161639      83.572192    
   1072000   0.99651325     18.268204      83.202652    
   1073000   1.0255681      17.788913      83.25649     
   1074000   0.98494572     18.150396      82.950128    
   1075000   1.02819        18.043599      82.80487     
   1076000   0.99047668     18.238152      82.820228    
   1077000   1.0179034      18.26556       82.750607    
   1078000   1.0403181      18.363015      82.572239    
   1079000   0.97967414     18.421137      82.617901    
   1080000   0.98088762     18.324303      82.597613    
   1081000   1.0033789      17.726728      82.286698    
   1082000   0.98280246     18.352122      82.18504     
   1083000   0.96475396     17.931343      82.299786    
   1084000   1.0218518      18.276838      82.374588    
   1085000   0.99906893     17.966381      82.204563    
   1086000   0.98001656     17.614352      82.118822    
   1087000   0.98967748     18.18133       82.148809    
   1088000   0.94869722     17.461309      82.186444    
   1089000   1.0389894      18.201963      82.142308    
   1090000   0.97212689     18.200562      81.989883    
   1091000   1.0324921      18.067402      81.789115    
   1092000   0.99930536     18.327934      81.90661     
   1093000   0.98486166     18.066585      81.905248    
   1094000   1.0317673      17.538841      81.790584    
   1095000   0.97486736     17.940064      81.769373    
   1096000   0.98584056     18.001484      81.698405    
   1097000   1.020271       17.486848      81.614285    
   1098000   0.99906297     17.799264      81.412922    
   1099000   0.99148633     17.905156      81.27562     
   1100000   1.0276194      17.800856      81.304542    
   1101000   1.0472153      18.361598      81.230376    
   1102000   1.0048263      18.337257      80.998239    
   1103000   0.97705629     17.895977      80.885742    
   1104000   0.99257326     18.017945      80.746103    
   1105000   0.99515335     17.448674      80.686549    
   1106000   1.0047538      18.478095      80.726051    
   1107000   0.97212399     17.429102      80.563154    
   1108000   1.0258171      17.901496      80.485774    
   1109000   0.99955215     17.811193      80.330634    
   1110000   1.0471074      17.598723      80.314274    
   1111000   1.0587039      17.689879      80.144902    
   1112000   1.0290273      17.929457      79.884844    
   1113000   1.0247359      18.198752      79.747499    
   1114000   0.9903545      18.384618      79.678007    
   1115000   0.97662267     17.743772      79.545189    
   1116000   0.98846271     17.352042      79.536126    
   1117000   1.0212029      17.865163      79.424291    
   1118000   0.99180189     17.931304      79.290774    
   1119000   1.0155439      17.757165      79.237079    
   1120000   0.99488902     18.32226       78.993582    
   1121000   0.96238102     17.857587      79.049986    
   1122000   0.97677325     17.944366      79.023291    
   1123000   1.0042552      17.975159      79.26048     
   1124000   1.0360232      17.717016      78.972636    
   1125000   1.0010259      18.172684      78.776135    
   1126000   1.0200412      18.8099        78.572887    
   1127000   0.98414416     18.035469      78.394276    
   1128000   1.0105521      18.040932      78.241205    
   1129000   0.9888189      17.848957      78.174188    
   1130000   0.98086639     17.736792      78.131237    
   1131000   0.90774576     17.465162      78.030663    
   1132000   1.0063855      18.232717      78.324774    
   1133000   0.98079984     17.891445      78.258988    
   1134000   0.99196831     17.626834      78.249297    
   1135000   0.98852755     18.458905      78.33142     
   1136000   1.0201112      17.999581      78.24648     
   1137000   1.0120805      18.550421      78.025737    
   1138000   1.0003857      18.751483      78.074332    
   1139000   0.99460411     18.187496      78.047501    
   1140000   1.0191907      18.61671       77.682035    
   1141000   1.0129822      17.707198      77.593076    
   1142000   1.0068472      18.122854      77.646027    
   1143000   0.98749135     17.920179      77.297697    
   1144000   1.0107885      17.764218      77.024449    
   1145000   1.0090984      17.698644      76.921937    
   1146000   1.0165596      17.686564      77.073294    
   1147000   0.96139464     18.042465      77.069897    
   1148000   1.0277427      17.648751      77.005587    
   1149000   0.94642679     18.157571      77.018934    
   1150000   1.0525418      18.512457      76.946653    
   1151000   1.0258448      17.817602      76.811583    
   1152000   0.9855483      18.433246      76.634211    
   1153000   1.0013718      17.711456      76.363536    
   1154000   1.0308601      18.138064      76.051451    
   1155000   0.97967033     18.289555      75.860562    
   1156000   1.0234067      17.947176      75.67492     
   1157000   0.97355364     18.032094      75.552279    
   1158000   0.99934149     17.900651      75.413705    
   1159000   1.0122393      18.303521      75.229816    
   1160000   0.96998522     18.164337      75.132605    
   1161000   0.96506968     17.814328      75.081326    
   1162000   0.99212278     18.07931       75.043876    
   1163000   1.0273703      18.001614      74.835611    
   1164000   0.96157304     17.491347      74.83992     
   1165000   0.99784833     17.544953      74.710129    
   1166000   1.0173509      17.839114      74.659206    
   1167000   1.0056353      17.812842      74.612127    
   1168000   0.97276556     17.573174      74.643699    
   1169000   1.0009924      17.994382      74.459172    
   1170000   1.0392967      18.090723      74.458585    
   1171000   0.95079185     18.000627      74.405619    
   1172000   1.0351113      18.27453       74.242726    
   1173000   1.0033191      17.923227      74.152667    
   1174000   0.99770836     17.84311       74.097186    
   1175000   1.0061632      17.953739      74.011017    
   1176000   0.9696693      17.864258      74.047787    
   1177000   0.99783575     18.072394      73.848085    
   1178000   1.0086053      18.17864       73.674862    
   1179000   0.98762579     18.329344      73.700535    
   1180000   0.98365898     18.43382       73.605626    
   1181000   1.0191918      17.869178      73.715294    
   1182000   1.0078703      17.706292      73.612071    
   1183000   1.0356305      18.355054      73.503235    
   1184000   1.0057237      18.89664       73.523678    
   1185000   1.0231335      17.997863      73.552617    
   1186000   0.96944603     17.71579       73.626638    
   1187000   1.0092413      17.930475      73.351538    
   1188000   0.97287764     17.570831      73.202354    
   1189000   1.019245       18.140904      73.216052    
   1190000   0.98632992     17.793742      73.114013    
   1191000   1.0069242      17.954237      72.942136    
   1192000   0.97698752     18.392021      72.811182    
   1193000   1.0274447      18.070075      72.825475    
   1194000   0.98275232     18.070437      72.746096    
   1195000   0.99635476     17.687355      72.704672    
   1196000   1.003224       17.342458      72.509419    
   1197000   1.0313773      18.507207      72.349269    
   1198000   0.99167881     17.682002      72.28862     
   1199000   1.0065338      17.826106      72.163377    
   1200000   1.026796       17.944759      72.03181     
   1201000   1.0165245      17.901337      71.975091    
   1202000   1.0008385      18.326264      71.793866    
   1203000   0.99225041     18.248907      71.793619    
   1204000   0.98094435     17.832997      71.75007     
   1205000   0.9879088      17.561632      71.72977     
   1206000   0.96410856     17.663777      71.751458    
   1207000   0.9992012      17.998139      71.697032    
   1208000   0.99772701     17.643157      71.7168      
   1209000   1.0282736      17.709182      71.702837    
   1210000   1.0003256      17.809302      71.698658    
   1211000   1.0376125      18.10981       71.599344    
   1212000   0.99707537     17.941572      71.35886     
   1213000   0.95806765     17.921889      71.119651    
   1214000   1.0017656      18.025812      70.915095    
   1215000   0.96817367     17.904423      70.712312    
   1216000   1.0124408      18.171524      70.685791    
   1217000   0.99442954     17.713848      70.565527    
   1218000   0.99653245     17.673109      70.468305    
   1219000   1.0252938      17.908508      70.521734    
   1220000   0.98385297     17.725059      70.490856    
   1221000   0.98018421     17.617707      70.496405    
   1222000   1.0118387      17.967798      70.370392    
   1223000   0.99905093     18.138641      70.351596    
   1224000   1.0052125      17.562165      70.23111     
   1225000   0.96609174     18.001792      69.98061     
   1226000   1.0199799      17.707776      69.835616    
   1227000   1.0162344      17.716265      69.679604    
   1228000   1.0256635      18.177211      69.586481    
   1229000   0.98878694     17.295392      69.48591     
   1230000   1.0207951      17.985693      69.567209    
   1231000   1.0297587      17.716395      69.394227    
   1232000   0.9902837      17.616304      69.187945    
   1233000   1.0394607      17.927566      69.07294     
   1234000   1.0025995      17.900011      69.156524    
   1235000   1.0046972      18.12313       69.105553    
   1236000   1.010133       18.12547       68.874574    
   1237000   1.0129873      17.841009      69.020831    
   1238000   1.0234201      17.960932      69.079392    
   1239000   0.9822788      17.702795      68.957134    
   1240000   0.97284366     18.149781      68.828741    
   1241000   1.0070202      17.777853      68.864704    
   1242000   0.98121142     17.812602      68.795636    
   1243000   0.9801177      17.886601      68.771629    
   1244000   1.0133613      18.167661      68.591609    
   1245000   0.97935684     18.163266      68.577566    
   1246000   1.0080769      17.891975      68.54971     
   1247000   1.0127006      17.773862      68.411786    
   1248000   1.0398959      18.345853      68.18741     
   1249000   0.95522278     18.11259       68.240093    
   1250000   0.98350581     17.824978      68.324625    
   1251000   1.0360365      17.910519      68.426491    
   1252000   1.00331        17.713702      68.408617    
   1253000   1.0120656      18.200387      68.285183    
   1254000   0.98722411     17.406706      68.339351    
   1255000   1.0044905      17.925337      68.317578    
   1256000   1.0183692      17.705183      68.450441    
   1257000   1.0343707      17.985956      68.304162    
   1258000   1.0081093      18.121999      68.342769    
   1259000   0.9882413      17.846134      68.223709    
   1260000   0.98164922     18.248924      67.959191    
   1261000   0.99279849     17.849971      68.045812    
   1262000   0.97304494     17.639605      67.926315    
   1263000   0.98376932     18.35381       67.874672    
   1264000   0.97656721     17.849353      68.014223    
   1265000   1.0022906      17.756434      67.87235     
   1266000   0.9944317      17.987189      67.715534    
   1267000   1.0148538      17.598798      67.804671    
   1268000   1.0221773      18.208159      67.890233    
   1269000   1.0323192      17.970501      67.744601    
   1270000   0.94273352     17.78042       67.637178    
   1271000   1.008294       17.654788      67.726658    
   1272000   1.0193442      17.454784      67.644661    
   1273000   1.0008331      18.229741      67.614858    
   1274000   1.026948       17.582941      67.448235    
   1275000   1.0118493      17.296267      67.366855    
   1276000   0.95743454     18.324689      67.236518    
   1277000   0.96387924     17.590299      67.114285    
   1278000   1.0271188      18.012731      66.790118    
   1279000   0.98406482     17.636682      66.509409    
   1280000   1.0079704      17.457136      66.246792    
   1281000   1.0118258      17.29971       66.22487     
   1282000   1.0271439      17.949897      66.067629    
   1283000   0.97483516     17.723217      65.81645     
   1284000   0.97863286     17.664021      65.649554    
   1285000   1.0059625      18.166587      65.734457    
   1286000   1.0015815      17.579484      65.643759    
   1287000   0.96841632     17.652289      65.613891    
   1288000   1.0061697      17.842336      65.390233    
   1289000   1.0104833      18.123272      65.416829    
   1290000   1.0267153      17.932725      65.264685    
   1291000   1.0031911      17.878175      65.162149    
   1292000   1.0187691      18.011017      64.911322    
   1293000   1.0167345      17.530754      64.810116    
   1294000   0.97294243     17.811622      64.86636     
   1295000   0.99345988     17.810752      64.959676    
   1296000   0.99193114     17.61227       64.831392    
   1297000   1.0040848      17.438416      64.719374    
   1298000   1.0153219      18.000914      64.453926    
   1299000   0.97348386     17.83395       64.185663    
   1300000   0.98624441     17.829963      64.102981    
   1301000   1.0012414      18.154326      64.01038     
   1302000   1.0111645      17.959064      64.018333    
   1303000   0.99440033     17.253728      63.921321    
   1304000   0.98645904     18.420758      64.196781    
   1305000   0.95432314     17.346475      64.132225    
   1306000   1.0064714      18.135656      63.898286    
   1307000   0.93569492     17.191811      63.852232    
   1308000   1.0162474      17.884182      63.749821    
   1309000   1.0180895      17.679745      63.50343     
   1310000   1.0343158      18.056354      63.429799    
   1311000   1.0369109      18.052497      63.356187    
   1312000   1.0255669      17.680291      63.243107    
   1313000   0.98419417     17.907572      63.302196    
   1314000   0.99070713     18.078655      63.359629    
   1315000   0.95927249     17.676525      63.149156    
   1316000   0.98885897     18.204936      63.033555    
   1317000   1.0259272      17.940658      62.843309    
   1318000   1.0211618      17.38158       62.629665    
   1319000   0.99269758     17.802149      62.484172    
   1320000   0.99788018     17.811275      62.333101    
   1321000   1.0254944      17.91619       62.150022    
   1322000   0.97364915     18.241717      61.918803    
   1323000   1.0149175      17.867534      61.853147    
   1324000   0.9916946      17.562489      61.756577    
   1325000   0.96195833     17.416348      61.577999    
   1326000   1.0118741      17.967915      61.348176    
   1327000   0.98232152     17.923771      61.271198    
   1328000   0.99543796     17.716319      61.159568    
   1329000   0.98149159     17.964451      61.031376    
   1330000   1.0184581      17.617724      60.626264    
   1331000   1.0241238      18.009885      60.352858    
   1332000   0.96435705     18.04706       60.332923    
   1333000   1.0515142      18.189361      60.1313      
   1334000   1.0169261      17.895304      60.217457    
   1335000   0.99277596     17.109472      60.132843    
   1336000   1.029697       17.959451      59.934126    
   1337000   1.0440908      18.035098      59.801017    
   1338000   0.98088794     17.601585      59.538595    
   1339000   1.0159712      17.961782      59.470528    
   1340000   1.0092328      17.505401      59.253291    
   1341000   1.010344       17.735949      58.895083    
   1342000   1.0075031      17.697811      58.835309    
   1343000   1.0309727      17.744547      58.935411    
   1344000   1.0273348      17.832251      58.922892    
   1345000   0.9737533      17.968594      58.695478    
   1346000   1.0102155      18.055909      58.74365     
   1347000   1.0145738      17.566771      58.664856    
   1348000   1.0073409      18.190652      58.57727     
   1349000   0.96858674     17.459183      58.734282    
   1350000   0.97200801     17.897402      58.656174    
   1351000   0.99304471     18.039508      58.657895    
   1352000   1.0088543      17.696759      58.640007    
   1353000   1.0421041      17.529238      58.402187    
   1354000   1.0126341      17.837755      58.209944    
   1355000   0.9912141      17.633972      58.10141     
   1356000   0.99357125     18.095106      58.110975    
   1357000   1.0027118      17.855721      57.984877    
   1358000   1.0202175      17.31319       57.840791    
   1359000   0.9384269      18.182778      57.702259    
   1360000   1.0127976      17.733076      57.376721    
   1361000   1.0262217      17.778715      57.51267     
   1362000   1.0115501      17.568254      57.462401    
   1363000   0.99576527     17.290849      57.314653    
   1364000   1.0077257      17.612233      57.244078    
   1365000   1.0670893      18.276193      57.057685    
   1366000   1.0193298      17.482231      57.008301    
   1367000   1.0105794      17.802604      57.002705    
   1368000   1.0031848      18.290101      56.843385    
   1369000   0.98939919     17.283167      56.481962    
   1370000   0.99970651     17.560782      56.509699    
   1371000   0.99098517     17.742271      56.579142    
   1372000   1.0149617      17.603688      56.649837    
   1373000   0.9841711      17.337893      56.596674    
   1374000   0.99658494     17.452347      56.651289    
   1375000   1.0057762      18.177549      56.507791    
   1376000   1.009082       18.01878       56.204743    
   1377000   1.0127257      17.525095      55.952618    
   1378000   1.0260764      17.414596      56.038289    
   1379000   0.94589626     17.197832      56.056364    
   1380000   1.0072725      17.515154      55.883954    
   1381000   1.0221125      18.177084      55.864599    
   1382000   0.98312351     17.816664      55.933136    
   1383000   0.97383879     17.389738      55.787153    
   1384000   1.0347942      18.109809      55.841897    
   1385000   1.0035789      17.46286       55.805133    
   1386000   0.97949801     17.69166       55.610701    
   1387000   0.97956767     17.580292      55.499908    
   1388000   0.99476157     17.641507      55.449797    
   1389000   1.0208086      18.01921       55.547876    
   1390000   1.0163537      17.412156      55.536702    
   1391000   0.98013436     17.557225      55.305914    
   1392000   1.0276524      17.763134      55.310794    
   1393000   0.97155994     17.865104      55.249387    
   1394000   0.9702911      17.740105      55.10423     
   1395000   1.0250994      17.174262      55.087658    
   1396000   1.0146479      18.034768      54.905026    
   1397000   1.0325599      17.683441      54.725832    
   1398000   1.0184114      17.351535      54.568468    
   1399000   1.0525021      18.008761      54.273235    
   1400000   0.97672665     17.410953      54.114169    
   1401000   0.99322281     17.411458      53.988487    
   1402000   1.0039934      17.641831      53.960639    
   1403000   0.99592927     18.181699      53.962308    
   1404000   0.98483693     17.496884      53.905459    
   1405000   0.98985123     17.546603      53.944217    
   1406000   1.0177179      17.867637      53.911517    
   1407000   1.0235537      17.851138      53.735107    
   1408000   1.0165268      17.384753      53.951619    
   1409000   1.0169067      17.733317      53.846439    
   1410000   1.0121352      17.773319      53.691174    
   1411000   1.0170403      17.972003      53.602567    
   1412000   1.0259613      17.340957      53.422642    
   1413000   0.98953661     17.515364      53.360231    
   1414000   1.0028551      18.160875      53.12912     
   1415000   0.97633679     17.200136      52.742132    
   1416000   0.98173903     18.125718      52.806218    
   1417000   0.94829899     17.201835      52.635175    
   1418000   0.98351963     17.686839      52.474849    
   1419000   1.0105839      17.329383      52.521908    
   1420000   1.0293068      17.771413      52.396173    
   1421000   0.98152349     17.364455      52.253776    
   1422000   1.0078588      17.618119      52.04087     
   1423000   1.0177494      17.622374      51.990567    
   1424000   0.97108029     17.894267      51.879267    
   1425000   1.00226        17.786019      52.003706    
   1426000   1.0117994      17.954751      51.787739    
   1427000   1.0075844      17.499294      51.656643    
   1428000   1.0119047      17.95931       51.28698     
   1429000   1.0283582      17.709433      51.188713    
   1430000   1.0351767      17.80074       50.957192    
   1431000   1.0161121      18.235347      50.85346     
   1432000   1.0152375      18.040112      50.903804    
   1433000   0.9776119      17.541339      50.652736    
   1434000   1.0020646      18.115434      50.86587     
   1435000   1.0412903      17.815505      50.951381    
   1436000   1.0027861      17.594585      50.838029    
   1437000   1.0302093      17.478102      50.685231    
   1438000   0.98324551     17.501136      50.376648    
   1439000   0.97546717     17.398347      50.281147    
   1440000   0.98550904     16.959255      50.164496    
   1441000   1.0044103      17.656413      50.063029    
   1442000   0.99363245     17.334955      49.917652    
   1443000   1.0310642      17.700663      49.872869    
   1444000   1.0091757      17.81728       49.727125    
   1445000   1.0072871      18.115076      49.757669    
   1446000   0.98799465     17.699613      49.769176    
   1447000   0.98933967     17.488617      49.807941    
   1448000   1.0265485      18.045894      49.752786    
   1449000   0.96590914     17.464069      49.814576    
   1450000   1.0261903      17.410378      49.784012    
   1451000   0.98568966     17.555949      49.660287    
   1452000   0.9776989      17.834579      49.443919    
   1453000   0.9737461      17.62582       49.440126    
   1454000   0.98558976     17.790103      49.290177    
   1455000   0.99271336     17.965275      49.205612    
   1456000   1.0249725      17.726444      49.3129      
   1457000   0.99766903     17.684802      49.374272    
   1458000   0.98753967     18.069711      49.236332    
   1459000   1.0001852      17.849368      49.158434    
   1460000   1.006509       18.04571       49.021786    
   1461000   0.99446018     17.263788      48.98089     
   1462000   0.96650382     17.366237      49.134731    
   1463000   0.99202005     17.496837      49.094446    
   1464000   1.0098561      17.303661      48.912915    
   1465000   1.0276053      17.610972      48.936404    
   1466000   1.0337859      17.480478      48.816336    
   1467000   1.0025729      17.217306      48.498271    
   1468000   0.94843641     17.214729      48.351673    
   1469000   1.0335788      18.058132      48.070702    
   1470000   1.0052577      17.526343      47.927791    
   1471000   1.0095038      17.451918      47.959819    
   1472000   0.99140535     17.824717      47.796353    
   1473000   0.97424679     17.386693      47.629615    
   1474000   1.0044815      18.108544      47.348431    
   1475000   1.008369       17.52252       47.253504    
   1476000   0.99200085     17.677993      47.343788    
   1477000   1.0193258      17.814887      47.165758    
   1478000   1.013678       17.824701      47.147158    
   1479000   1.0116298      17.917121      47.221024    
   1480000   1.0195293      17.398443      47.179029    
   1481000   1.0000898      17.831633      47.072915    
   1482000   1.0088592      17.852682      47.011555    
   1483000   0.97457822     17.323653      46.950012    
   1484000   0.99897942     18.057936      47.026501    
   1485000   0.99195541     18.218677      47.024662    
   1486000   0.97184201     17.653076      47.091511    
   1487000   1.0010991      17.674156      47.084244    
   1488000   0.99897171     17.00195       47.059159    
   1489000   0.98226368     17.270001      46.952974    
   1490000   0.96594592     17.201326      46.634803    
   1491000   1.014782       17.666716      46.673506    
   1492000   0.98830421     17.92251       46.562651    
   1493000   1.014125       17.467693      46.590506    
   1494000   0.98215679     17.614061      46.717255    
   1495000   1.0262513      17.881131      46.643067    
   1496000   0.98079849     17.079595      46.760626    
   1497000   0.97507244     16.92018       46.603202    
   1498000   0.99538259     17.54809       46.558071    
   1499000   0.97905358     17.994976      46.742043    
   1500000   1.0080258      17.947478      46.436195    
   1501000   1.0013394      17.752684      45.982899    
   1502000   0.99112372     17.630723      46.030757    
   1503000   0.96735878     17.318395      45.658201    
   1504000   1.0224343      17.708154      45.571483    
   1505000   0.96186624     17.47119       45.49337     
   1506000   0.98273422     17.84118       45.449467    
   1507000   1.0002471      17.34825       45.41144     
   1508000   0.97147164     17.684295      45.21354     
   1509000   1.061099       17.963089      45.168103    
   1510000   1.0170567      17.505471      45.341077    
   1511000   0.99543648     17.343218      45.227435    
   1512000   1.0225568      18.268569      45.148047    
   1513000   1.0484755      17.702946      45.056753    
   1514000   0.97894513     17.351296      44.976992    
   1515000   0.99806094     17.419433      44.874852    
   1516000   1.0079784      17.248218      44.736222    
   1517000   0.97986457     17.299117      44.794997    
   1518000   0.97855221     17.866819      44.757629    
   1519000   0.97753505     17.47444       44.419346    
   1520000   1.004619       16.946993      44.487297    
   1521000   0.98055108     17.647086      44.514492    
   1522000   1.0339363      17.785212      44.547365    
   1523000   1.037808       18.016132      44.603014    
   1524000   1.0224203      18.045085      44.435843    
   1525000   1.0439808      17.947577      44.36451     
   1526000   0.99462597     17.156548      44.258577    
   1527000   0.99099121     17.322158      44.245254    
   1528000   0.97967033     17.315002      44.117283    
   1529000   0.97244177     16.734116      44.04701     
   1530000   1.0123219      17.67449       43.908682    
   1531000   1.0159876      17.858225      43.735069    
   1532000   0.98923453     17.445812      43.577336    
   1533000   0.97223198     17.049086      43.500161    
   1534000   0.99566248     17.542462      43.243405    
   1535000   1.005655       17.468789      43.29608     
   1536000   0.98922575     17.463208      43.217296    
   1537000   0.97781814     17.318683      43.107647    
   1538000   0.9820418      17.537823      42.814311    
   1539000   0.96082556     17.329967      42.623312    
   1540000   1.0162442      17.83703       42.630827    
   1541000   1.0233595      17.668344      42.449684    
   1542000   1.0050445      17.760035      42.620831    
   1543000   0.97845336     17.633365      42.532373    
   1544000   0.96078702     17.189661      42.421738    
   1545000   0.98697301     17.299836      42.257164    
   1546000   1.0062425      17.228908      42.254597    
   1547000   1.0350627      17.238839      42.097933    
   1548000   0.94383277     17.041295      41.904702    
   1549000   0.97254463     17.519284      41.9942      
   1550000   0.98754948     17.273473      41.732882    
   1551000   0.99858615     17.31277       41.61962     
   1552000   0.99648495     17.44226       41.437248    
   1553000   1.0002085      17.868686      41.37077     
   1554000   0.97873346     17.527227      41.377327    
   1555000   1.0246892      17.818627      41.285858    
   1556000   1.0058939      17.573499      41.518666    
   1557000   1.0008632      18.066519      41.248092    
   1558000   0.98316981     17.905171      41.243771    
   1559000   0.94701117     17.379058      41.113369    
   1560000   1.0419041      17.500069      41.073113    
   1561000   1.0054555      17.617257      41.068162    
   1562000   1.0006034      17.517664      40.922635    
   1563000   0.98265871     17.19933       41.03592     
   1564000   1.0255483      17.947168      40.943387    
   1565000   0.98023098     17.402205      40.971349    
   1566000   1.0036709      17.139475      40.823078    
   1567000   0.98267121     17.35828       40.695277    
   1568000   1.0146657      17.925041      40.663631    
   1569000   0.97495427     17.5195        40.54523     
   1570000   1.0476921      17.405926      40.539065    
   1571000   1.0096924      17.546596      40.547218    
   1572000   0.99968451     17.279809      40.585347    
   1573000   1.0095971      17.662587      40.389421    
   1574000   1.0090928      17.35028       40.177764    
   1575000   1.0307286      17.619494      40.150667    
   1576000   1.000765       17.982822      40.021448    
   1577000   0.98308174     17.674308      39.80419     
   1578000   1.0136989      18.182377      39.644294    
   1579000   0.98259759     17.360206      39.600743    
   1580000   1.0070194      17.421936      39.280197    
   1581000   0.97285882     17.60092       39.120461    
   1582000   1.0182873      17.685998      39.153286    
   1583000   1.0050737      17.445978      39.043305    
   1584000   0.99774136     17.560498      39.166557    
   1585000   1.0367155      17.834934      38.94708     
   1586000   0.96768603     17.422506      38.916575    
   1587000   1.0083244      17.653002      39.007828    
   1588000   0.99746379     17.660091      39.153009    
   1589000   1.0171771      17.381296      39.072134    
   1590000   0.99590335     16.818738      38.998718    
   1591000   0.9880195      16.955761      38.745071    
   1592000   0.98179932     17.769913      38.683665    
   1593000   1.0087223      17.838401      38.572337    
   1594000   0.98777102     17.668375      38.618681    
   1595000   0.98795912     17.289581      38.659584    
   1596000   0.98480665     17.85761       38.662433    
   1597000   1.0110785      17.72234       38.603102    
   1598000   0.98887301     17.614303      38.432249    
   1599000   0.9843376      17.635851      38.450235    
   1600000   1.0029475      17.122379      38.210531    
   1601000   0.98401581     17.660583      38.319915    
   1602000   0.98516164     17.267318      38.207375    
   1603000   0.99827965     17.508188      38.423861    
   1604000   0.98042294     17.463471      38.510639    
   1605000   1.0181177      17.591825      38.385086    
   1606000   1.0248671      17.482865      38.287066    
   1607000   1.0159868      17.488238      38.301734    
   1608000   1.0394799      17.930425      38.073823    
   1609000   1.012537       16.814956      38.066396    
   1610000   0.99642971     17.787081      37.969862    
   1611000   1.0075705      17.868068      38.097164    
   1612000   0.99953034     17.069597      38.033934    
   1613000   1.0235533      17.956947      37.759452    
   1614000   1.0009389      17.524813      37.697991    
   1615000   0.97886462     17.582504      37.868687    
   1616000   1.0203024      17.501794      37.898679    
   1617000   0.98468079     17.382435      37.826941    
   1618000   1.002175       17.651467      37.880756    
   1619000   0.99287366     17.454932      37.847047    
   1620000   0.99940953     17.562965      37.73193     
   1621000   1.0162935      17.474183      37.700082    
   1622000   1.0110394      16.902979      37.574574    
   1623000   0.98515311     17.63317       37.531403    
   1624000   1.0053802      17.778316      37.438243    
   1625000   0.99047825     17.504697      37.452778    
   1626000   0.98904552     17.838416      37.328923    
   1627000   1.0089876      17.16355       37.059181    
   1628000   1.0184156      17.744704      37.124981    
   1629000   1.0170125      17.486613      36.917718    
   1630000   0.99930747     17.826038      36.746822    
   1631000   0.97537867     17.357031      36.538771    
   1632000   0.98906206     17.938626      36.356552    
   1633000   1.0053614      17.739473      36.234936    
   1634000   0.96102903     17.672482      35.941564    
   1635000   1.0294759      17.36236       35.758695    
   1636000   1.0196354      17.456144      35.532521    
   1637000   0.93807917     17.707675      35.479067    
   1638000   0.99455813     17.338344      35.488958    
   1639000   1.0130105      17.276438      35.376125    
   1640000   0.98162296     17.895362      35.430755    
   1641000   0.99816838     16.86832       35.372368    
   1642000   1.0373705      17.334597      35.23124     
   1643000   0.98937733     17.214314      34.994696    
   1644000   1.0168811      17.84794       34.799859    
   1645000   1.0276412      17.611066      34.756121    
   1646000   1.0158647      17.16653       34.877006    
   1647000   1.0096991      17.408495      34.80335     
   1648000   0.99452921     17.348453      34.72949     
   1649000   0.94582976     17.556279      34.757021    
   1650000   1.0301426      17.244992      34.615299    
   1651000   1.0496263      17.930909      34.407475    
   1652000   0.96351931     17.547207      34.486277    
   1653000   1.0178214      17.843232      34.490284    
   1654000   0.9960512      17.376858      34.468029    
   1655000   0.96783898     17.369203      34.236708    
   1656000   0.99821832     17.406473      34.32968     
   1657000   1.0389975      17.823301      34.207898    
   1658000   0.98231766     16.892355      34.276438    
   1659000   1.0255752      16.98476       34.14593     
   1660000   1.0190513      17.383416      34.061043    
   1661000   1.041756       17.400678      34.156329    
   1662000   1.039877       16.87808       33.958118    
   1663000   0.99689096     17.597441      33.851872    
   1664000   0.96433577     16.948474      33.827163    
   1665000   1.0029913      17.693413      33.740137    
   1666000   1.0459778      17.407166      33.618505    
   1667000   1.0190964      17.496013      33.455757    
   1668000   1.0091113      17.497319      33.287269    
   1669000   0.99117767     17.361967      33.109562    
   1670000   1.0199281      17.375893      33.253529    
   1671000   0.98055417     17.428458      33.3847      
   1672000   1.0341099      17.571556      33.227412    
   1673000   1.0155007      17.352588      33.125735    
   1674000   0.9724232      17.219788      33.12162     
   1675000   1.0237816      17.526945      33.094793    
   1676000   0.99742797     17.470872      33.06298     
   1677000   0.99160667     17.303731      32.95256     
   1678000   0.98194        17.213444      32.841784    
   1679000   0.94167051     16.884291      32.849209    
   1680000   1.0083281      17.893687      32.878136    
   1681000   1.0011772      17.286558      32.704943    
   1682000   1.0223859      17.180589      32.615765    
   1683000   0.99954239     17.688109      32.531065    
   1684000   1.0032006      17.302231      32.400015    
   1685000   0.98649303     17.432583      32.373229    
   1686000   0.99920447     17.22811       32.547965    
   1687000   1.0194707      17.148022      32.382599    
   1688000   1.0131406      16.757376      32.437947    
   1689000   0.96818053     17.525663      32.408992    
   1690000   0.97847613     17.172609      32.197468    
   1691000   0.9841703      17.695459      32.278767    
   1692000   1.0340694      17.476734      32.2132      
   1693000   0.99424504     17.291617      32.254461    
   1694000   0.99677451     17.593523      32.482986    
   1695000   1.0168402      16.961186      32.310501    
   1696000   0.98862367     17.607156      32.00901     
   1697000   1.0043153      17.999809      31.675483    
   1698000   1.0145459      17.394247      31.475022    
   1699000   0.99252949     16.870363      31.569723    
   1700000   0.95633922     17.323637      31.610391    
   1701000   0.99360648     17.096717      31.684258    
   1702000   0.97304831     17.394411      31.514166    
   1703000   1.0358601      17.971836      31.331176    
   1704000   1.0227904      17.277798      31.235662    
   1705000   0.96978833     17.744204      31.274534    
   1706000   0.99537336     17.380168      31.332413    
   1707000   0.98749582     17.267712      31.263573    
   1708000   0.97348364     17.559664      31.211577    
   1709000   1.0092789      17.554687      31.063911    
   1710000   1.034745       17.86557       31.009594    
   1711000   0.97771676     17.672624      30.955958    
   1712000   0.96855361     17.430623      30.998901    
   1713000   1.0145931      17.280923      30.989557    
   1714000   0.98467258     17.946498      30.836365    
   1715000   0.98772794     17.017474      30.56785     
   1716000   0.9791993      17.707384      30.160326    
   1717000   1.039448       17.574666      30.092633    
   1718000   1.0040892      17.344562      29.85393     
   1719000   0.99443017     17.83425       29.817336    
   1720000   1.0169097      17.602298      29.716647    
   1721000   0.98557809     17.352053      29.501835    
   1722000   0.95278874     17.143563      29.448971    
   1723000   1.0014996      17.659257      29.434733    
   1724000   0.9957909      17.025624      29.203053    
   1725000   0.94959359     17.078337      29.307748    
   1726000   0.99071364     17.705039      29.139479    
   1727000   0.99168418     16.968118      29.092523    
   1728000   0.98256714     17.374981      29.04866     
   1729000   1.0663232      17.244553      29.187479    
   1730000   0.99666692     17.61673       29.043042    
   1731000   0.98009997     17.707154      28.917974    
   1732000   0.98746657     16.819563      28.709702    
   1733000   1.0127286      17.58028       28.728633    
   1734000   0.9962129      17.624987      28.640596    
   1735000   0.9979791      17.190428      28.710136    
   1736000   0.98558236     17.359277      28.566361    
   1737000   0.99135825     16.884878      28.545509    
   1738000   0.99772047     17.528698      28.485344    
   1739000   1.0370983      18.106933      28.57187     
   1740000   1.0323043      16.921019      28.550721    
   1741000   1.0202347      17.632586      28.528599    
   1742000   1.008712       17.509313      28.3143      
   1743000   1.0076043      17.509295      28.38492     
   1744000   1.0045547      17.337334      28.371529    
   1745000   0.98621811     17.866505      28.261509    
   1746000   0.97689309     17.276406      28.093021    
   1747000   1.0146577      17.27574       28.050036    
   1748000   0.95718762     17.002925      27.931664    
   1749000   0.98225386     17.49584       27.92668     
   1750000   1.0160356      17.347554      27.857929    
   1751000   0.95051902     16.871057      27.618489    
   1752000   0.98746757     16.880434      27.393313    
   1753000   0.95407796     16.718417      27.277719    
   1754000   1.0013644      17.402917      27.175043    
   1755000   0.98528171     17.466751      27.091742    
   1756000   1.0068431      17.12811       27.024747    
   1757000   1.0034114      17.449441      26.777888    
   1758000   1.0150089      17.324979      26.783086    
   1759000   1.0007458      17.83668       26.617428    
   1760000   1.0012535      17.479261      26.356418    
   1761000   0.97889505     17.271272      26.327592    
   1762000   0.97444737     16.814338      26.187682    
   1763000   0.99954322     17.341917      26.035032    
   1764000   1.0067018      16.965722      25.938731    
   1765000   0.98727526     17.215345      25.907803    
   1766000   0.96804897     17.112207      25.78463     
   1767000   0.99930684     17.698343      25.659926    
   1768000   1.0124555      17.072343      25.677323    
   1769000   1.007732       17.306438      25.762399    
   1770000   0.9849787      17.490136      25.755284    
   1771000   1.0025398      17.079767      25.838883    
   1772000   0.99896142     17.378402      25.62695     
   1773000   0.99782983     18.315249      25.509752    
   1774000   1.0668666      17.827436      25.204728    
   1775000   0.97606219     17.633849      24.989475    
   1776000   0.97994432     16.644087      25.043358    
   1777000   0.99026499     17.281318      24.88892     
   1778000   1.0195317      16.886377      25.087564    
   1779000   0.97381212     17.109251      25.138971    
   1780000   0.96973836     16.800305      25.332864    
   1781000   1.0158969      18.065267      25.151939    
   1782000   1.0485231      17.39295       24.865684    
   1783000   0.99692927     17.269462      24.698574    
   1784000   1.0071638      16.972278      24.534832    
   1785000   1.0040298      16.799998      24.414605    
   1786000   0.97600139     17.482923      24.300403    
   1787000   0.99455775     17.296862      24.286208    
   1788000   1.0178997      17.193946      24.209041    
   1789000   1.0181242      17.732755      24.169006    
   1790000   1.019939       17.383699      23.900886    
   1791000   1.0312901      17.134557      23.911038    
   1792000   1.0035395      17.599399      23.898082    
   1793000   0.99744486     17.479474      24.046804    
   1794000   1.0204622      17.421406      23.975802    
   1795000   1.0435202      17.36438       23.797078    
   1796000   0.97916488     17.473233      23.801664    
   1797000   0.99742793     17.556617      23.809215    
   1798000   0.98475371     17.104776      23.853264    
   1799000   0.98767533     17.512555      23.902823    
   1800000   0.97439704     17.303878      23.900252    
   1801000   1.0106781      17.262571      23.83668     
   1802000   0.9797551      17.103646      23.692943    
   1803000   0.97718555     17.401722      23.841561    
   1804000   1.0346246      17.952708      23.767569    
   1805000   1.0198217      17.371476      23.727671    
   1806000   0.998688       17.135126      23.547959    
   1807000   1.0029018      16.888695      23.523416    
   1808000   0.97995425     16.856129      23.40953     
   1809000   1.0359101      16.959104      23.492675    
   1810000   0.99948264     17.470159      23.215468    
   1811000   1.030109       17.257152      23.050187    
   1812000   0.98671946     17.657719      23.049103    
   1813000   1.0201218      17.63634       23.014033    
   1814000   0.9985537      16.978623      23.021541    
   1815000   1.0126093      17.660408      23.169828    
   1816000   0.99884332     17.95336       23.151763    
   1817000   1.0003182      17.809189      23.120798    
   1818000   0.97168701     16.995357      22.877314    
   1819000   1.0287781      17.475227      22.819449    
   1820000   0.99615498     17.528957      22.794534    
   1821000   0.98285981     17.458705      22.915752    
   1822000   0.97527733     17.269405      22.866547    
   1823000   1.0070867      17.066565      22.709544    
   1824000   0.97212424     17.040508      22.702528    
   1825000   1.0039735      17.548654      22.461859    
   1826000   1.0509326      17.607609      22.379752    
   1827000   0.97104952     17.531872      22.291043    
   1828000   1.0415306      17.098452      22.196879    
   1829000   1.0137798      17.817399      22.208925    
   1830000   0.98915873     17.412681      22.226654    
   1831000   0.94463308     17.269403      22.156904    
   1832000   0.98288484     17.281478      21.941434    
   1833000   1.0442421      17.779392      21.88594     
   1834000   1.0020773      16.886457      21.727985    
   1835000   1.0111485      17.281463      21.722263    
   1836000   1.025104       17.542329      21.777035    
   1837000   1.0003613      17.632105      21.600786    
   1838000   1.0035794      17.410624      21.666343    
   1839000   1.0128343      17.013872      21.503345    
   1840000   0.99199164     16.907774      21.376807    
   1841000   0.96309148     17.294216      21.441963    
   1842000   1.0138521      17.41354       21.511969    
   1843000   1.0451233      17.610416      21.354657    
   1844000   0.99008421     17.090437      21.256497    
   1845000   0.98639391     17.460297      21.188342    
   1846000   1.0676764      18.050076      21.284793    
   1847000   0.99638631     16.957701      21.234371    
   1848000   0.96898614     17.336641      21.325683    
   1849000   0.98373988     17.379742      21.317893    
   1850000   1.0345888      17.394595      21.149938    
   1851000   0.98614996     17.572976      21.237739    
   1852000   1.016492       17.456465      20.974712    
   1853000   1.0049281      17.420426      20.718372    
   1854000   1.0505224      17.694869      20.771446    
   1855000   0.997293       17.489047      20.714266    
   1856000   0.97044037     17.379843      20.612446    
   1857000   0.97576791     17.300518      20.591642    
   1858000   0.97146858     17.399564      20.554169    
   1859000   0.96599961     17.209676      20.558737    
   1860000   0.96762989     17.33533       20.461613    
   1861000   1.0026133      17.873126      20.523195    
   1862000   1.0284959      17.188331      20.550625    
   1863000   1.0063768      17.595125      20.645296    
   1864000   0.98320951     17.233782      20.801689    
   1865000   1.0039145      16.913715      20.604419    
   1866000   0.99738957     17.421005      20.368932    
   1867000   1.0028286      17.290438      20.412473    
   1868000   0.98071677     17.617636      20.519401    
   1869000   1.0127059      17.280021      20.519123    
   1870000   0.97763703     17.195798      20.660368    
   1871000   1.0106879      17.068857      20.604447    
   1872000   0.98152589     17.015207      20.631647    
   1873000   0.96552996     17.114401      20.454788    
   1874000   1.0321111      18.146536      20.318548    
   1875000   1.001614       17.230963      20.245542    
   1876000   0.99425934     17.13819       20.147623    
   1877000   0.9957402      17.317671      20.131191    
   1878000   1.0318621      17.211583      20.091834    
   1879000   0.99814762     17.278365      19.903083    
   1880000   0.99689381     17.653813      19.846903    
   1881000   0.97486725     17.626794      19.727198    
   1882000   0.98944773     16.92968       19.65993     
   1883000   1.0114297      17.714602      19.812105    
   1884000   1.056128       17.550714      19.863117    
   1885000   0.97988156     17.102231      19.907821    
   1886000   1.0262563      17.698258      19.536555    
   1887000   1.0189256      17.30787       19.46546     
   1888000   1.0334868      17.320317      19.365829    
   1889000   1.0000452      17.356327      19.349012    
   1890000   1.0279172      17.525815      19.363786    
   1891000   0.98077401     17.719821      19.273345    
   1892000   0.98848712     17.898779      19.159415    
   1893000   1.0134744      17.28318       19.123867    
   1894000   0.97671286     16.815841      19.029704    
   1895000   1.0419228      17.456082      18.989596    
   1896000   1.0196363      17.581084      18.89077     
   1897000   1.0222696      17.304737      18.830885    
   1898000   0.98356958     17.12678       18.67712     
   1899000   1.0404203      17.687381      18.370537    
   1900000   0.97786651     17.473048      18.308843    
   1901000   1.0061401      17.542223      18.252074    
   1902000   0.98202735     17.732704      18.356543    
   1903000   0.98609081     17.147581      18.611249    
   1904000   1.0185641      17.608348      18.466993    
   1905000   0.97767748     17.555853      18.280783    
   1906000   0.98979275     17.291522      18.306753    
   1907000   0.96721815     17.11327       18.410476    
   1908000   0.99990884     17.545349      18.339859    
   1909000   0.99664605     17.030459      18.354718    
   1910000   1.0276119      17.617661      18.448802    
   1911000   1.0125436      17.660382      18.387185    
   1912000   1.0159054      17.327177      18.215251    
   1913000   1.0458257      17.558667      18.016267    
   1914000   1.0008289      17.034415      17.897042    
   1915000   1.01598        16.994092      17.901542    
   1916000   0.99904424     16.894344      18.047087    
   1917000   0.98242591     17.123616      17.999521    
   1918000   1.0150694      17.269658      17.966984    
   1919000   1.0101714      17.509564      17.735537    
   1920000   1.0183047      17.406151      17.671958    
   1921000   0.98739138     17.55685       17.628853    
   1922000   1.010667       17.713068      17.658049    
   1923000   0.97131537     17.541621      17.66072     
   1924000   1.0303725      17.642868      17.555728    
   1925000   1.0039051      17.377964      17.414731    
   1926000   0.99386242     17.168671      17.313862    
   1927000   0.99658325     17.887796      17.088043    
   1928000   0.97519604     17.251644      17.22765     
   1929000   1.0295292      17.452397      17.140942    
   1930000   0.99504607     17.198059      17.041016    
   1931000   1.0053336      17.58622       17.087764    
   1932000   1.0253171      17.376744      16.9588      
   1933000   0.98444628     16.933095      16.884479    
   1934000   0.99656826     17.099023      16.634688    
   1935000   0.98697187     17.480534      16.574723    
   1936000   1.0165079      17.262826      16.484513    
   1937000   1.034651       17.778029      16.37472     
   1938000   0.99545447     16.771916      16.271281    
   1939000   0.96262553     17.5724        16.204321    
   1940000   0.96739445     16.871895      16.030556    
   1941000   0.98174847     17.376588      15.854599    
   1942000   1.007239       17.072447      15.775746    
   1943000   0.99122117     17.166716      15.676024    
   1944000   0.96956605     17.107003      15.459494    
   1945000   1.0174372      17.371155      15.406721    
   1946000   0.98765338     17.334633      15.2366      
   1947000   0.98610653     17.115849      14.91388     
   1948000   0.96946472     16.912515      14.846395    
   1949000   1.005524       17.742432      14.69644     
   1950000   1.0180492      17.510013      14.513565    
   1951000   1.0118381      17.794859      14.239114    
   1952000   0.9931863      17.692339      14.022509    
   1953000   1.0221369      17.186186      14.004179    
   1954000   1.0139728      17.046289      14.028625    
   1955000   1.0309857      17.454071      14.070575    
   1956000   0.97234432     17.149601      14.27655     
   1957000   0.98076694     17.245997      14.25844     
   1958000   0.96916905     17.16805       14.174269    
   1959000   0.99151482     17.11566       14.018418    
   1960000   1.0233568      17.642298      13.927692    
   1961000   1.0231568      17.35253       13.88392     
   1962000   1.0247437      16.874181      13.717266    
   1963000   0.98792033     17.194671      13.502327    
   1964000   0.98469663     17.313802      13.557718    
   1965000   0.98404543     17.417427      13.454831    
   1966000   1.0130383      17.343308      13.410658    
   1967000   0.99950724     17.056424      13.460288    
   1968000   1.0287306      17.751552      13.175883    
   1969000   0.97727664     16.93816       13.212724    
   1970000   0.98253861     17.232304      13.153441    
   1971000   1.0329713      17.631153      13.132937    
   1972000   0.99372956     17.537975      12.922711    
   1973000   0.96939173     17.426731      13.03417     
   1974000   0.98524494     17.317466      12.859255    
   1975000   1.0285582      17.588458      12.847701    
   1976000   0.97678816     17.566815      12.75584     
   1977000   0.97318167     17.618894      12.75054     
   1978000   1.0136771      17.320477      12.786712    
   1979000   0.97051414     17.259955      12.732834    
   1980000   1.0057384      16.720994      12.527035    
   1981000   0.98138653     17.264641      12.57823     
   1982000   0.99939783     16.766428      12.342962    
   1983000   0.95145486     17.591093      12.199664    
   1984000   0.99734773     17.45385       12.020866    
   1985000   1.0012226      16.92348       11.690773    
   1986000   0.94112912     17.82807       11.581209    
   1987000   1.0061216      17.242999      11.454354    
   1988000   1.0095507      17.442305      11.358637    
   1989000   1.0147755      16.974308      11.050129    
   1990000   0.97989401     17.16213       11.028077    
   1991000   1.004177       17.26591       11.01335     
   1992000   0.98572822     17.184159      10.730817    
   1993000   1.0285565      16.899988      10.241576    
   1994000   0.99463106     16.984137      10.127056    
   1995000   0.99219289     17.088071      9.8689778    
   1996000   0.9830986      16.560997      9.8364061    
   1997000   1.0159698      16.928581      9.7657268    
   1998000   0.97006362     16.772155      9.6872367    
   1999000   0.98118226     16.754158      9.633242     
   2000000   0.96475619     17.175054      9.4524266    
   2001000   1.0171512      17.176837      9.4313746    
   2002000   0.97320036     16.988066      9.6467571    
   2003000   0.99625631     17.062125      9.4761215    
   2004000   1.0039435      17.466447      9.2885452    
   2005000   0.98452346     17.050776      9.2383317    
   2006000   0.99259775     17.210615      9.2677332    
   2007000   0.97248674     17.331883      9.0191484    
   2008000   0.98922427     17.643509      8.9151722    
   2009000   0.96129232     17.110605      8.9787838    
   2010000   1.0318795      16.795831      9.0525034    
   2011000   0.95656159     17.136663      9.1153948    
   2012000   0.98929386     16.58847       9.1726525    
   2013000   1.0180114      17.100338      9.0773376    
   2014000   1.0086322      17.098162      9.0651479    
   2015000   0.99120645     17.563266      9.1177893    
   2016000   1.0001923      16.976277      9.1800247    
   2017000   1.0286736      17.057854      9.1223885    
   2018000   1.0198052      17.36655       9.0314654    
   2019000   1.0219347      17.367053      8.8798722    
   2020000   1.0220499      16.693575      8.9133173    
   2021000   0.98896798     16.62302       8.8582242    
   2022000   1.0070978      17.126437      8.5853217    
   2023000   1.0013699      17.628584      8.5581871    
   2024000   1.0172725      17.2437        8.6218762    
   2025000   0.98263436     17.163321      8.6810926    
   2026000   1.0524108      17.674463      8.6386375    
   2027000   0.98618426     17.353729      8.543819     
   2028000   1.0034068      16.502644      8.5171905    
   2029000   0.96364774     17.053031      8.4692142    
   2030000   1.0025339      16.798925      8.2077336    
   2031000   0.99617335     17.109012      7.9244565    
   2032000   0.98776094     16.758318      7.8794845    
   2033000   0.99211829     16.697616      7.8158825    
   2034000   1.022612       16.963864      7.6475796    
   2035000   0.99756164     16.693465      7.5737996    
   2036000   1.0138083      17.407482      7.5737161    
   2037000   0.97941816     17.094551      7.4143318    
   2038000   1.0324282      16.918176      7.2770047    
   2039000   1.019804       17.03087       7.091454     
Fix halt condition for fix-id 3 met on step 2040000 with value 6.787616299651858 (src/fix_halt.cpp:237)
   2040000   1.0046557      16.975279      6.7876163    
Loop time of 2882.49 on 2 procs for 1940000 steps with 1201 atoms

Performance: 581496.346 tau/day, 673.028 timesteps/s
133.6% CPU use with 1 MPI tasks x 2 OpenMP threads

MPI task timing breakdown:
Section |  min time  |  avg time  |  max time  |%varavg| %total
---------------------------------------------------------------
Pair    | 722.6      | 722.6      | 722.6      |   0.0 | 25.07
Bond    | 60.677     | 60.677     | 60.677     |   0.0 |  2.11
Neigh   | 1946.9     | 1946.9     | 1946.9     |   0.0 | 67.54
Comm    | 0.88368    | 0.88368    | 0.88368    |   0.0 |  0.03
Output  | 7.9584     | 7.9584     | 7.9584     |   0.0 |  0.28
Modify  | 134.19     | 134.19     | 134.19     |   0.0 |  4.66
Other   |            | 9.299      |            |       |  0.32

Nlocal:           1201 ave        1201 max        1201 min
Histogram: 1 0 0 0 0 0 0 0 0 0
Nghost:              0 ave           0 max           0 min
Histogram: 1 0 0 0 0 0 0 0 0 0
Neighs:         290605 ave      290605 max      290605 min
Histogram: 1 0 0 0 0 0 0 0 0 0

Total # of neighbors = 290605
Ave neighs/atom = 241.96919
Ave special neighs/atom = 1.9983347
Neighbor list builds = 19247
Dangerous builds = 0

# This simulation is done
# Move onto the next one
clear
  using 2 OpenMP thread(s) per MPI task
package omp 0
using multi-threaded neighbor list subroutines
next f
jump SELF

Total wall time: 1:38:13
