#atom_style bond #no stiffness
atom_style angle #with stiffness

boundary        p p p
###
# Pair interactions require lists of neighbours to be calculated
###

#neighbor 0.3 bin
neighbor 4 bin

neigh_modify every 1 delay 1 check yes
atom_modify sort 0 0
### Generate RESTART file, SPECIAL format, not a .txt file ###
### Useful if simulation crashes ###

restart 1000000 N1B3/trial2/restarts3/$f.restart
restart 1000000 N1B3/trial2/restarts3/bb266nuc1bl133bn3d30tot400V2.restart
#############################



### READ "start" data file ###

read_data N1B3/trial2/dats2/$f.dat
read_data N1B3/trial2/dats2/bb266nuc1bl133bn3d30tot400V2.dat
Reading data file ...
  orthogonal box = (-1000 -1000 -1000) to (1000 1000 1000)
  1 by 1 by 1 MPI processor grid
  reading atoms ...
  400 atoms
  scanning bonds ...
  2 = max bonds/atom
  scanning angles ...
  3 = max angles/atom
  reading bonds ...
  399 bonds
  reading angles ...
  399 angles
Finding 1-2 1-3 1-4 neighbors ...
  special bond factors lj:    0        0        0       
  special bond factors coul:  0        0        0       
     3 = max # of 1-2 neighbors
     3 = max # of 1-3 neighbors
     6 = max # of 1-4 neighbors
     9 = max # of special neighbors
  special bonds CPU = 0.002 seconds
  read_data CPU = 0.124 seconds

######################

### READ "REstart" data file ###

######################



###
# Define groups (atom type 1 is group 'all')
###
group all type 1
400 atoms in group all


###
# Dump configs - "simple dumpings"
###

###
# Dump configs + box coords
###

dump   1   all   custom   1000  N1B3/trial2/trjs3/$f.lammpstrj  id  x y z  ix iy iz
dump   1   all   custom   1000  N1B3/trial2/trjs3/bb266nuc1bl133bn3d30tot400V2.lammpstrj  id  x y z  ix iy iz
dump_modify   1   format line "%d %.5f %.5f %.5f %d %d %d"

########################################################################


###################################################################
# Stiffness term
#
# E = K * (1+cos(theta)), K>0
#
angle_style   cosine
#change this coefficient to change stiffness (e.g. 1,5,10)
angle_coeff   1 1.0
###################################################################

###################################################################
# Pair interaction between non-bonded atoms
#
#  Lennard-Jones 12-6 potential with cutoff:
#  potential E=4epsilon[ (sigma/r)^12 - (sigma/r)^6]  for r<r_cut
#
#  1.12246 = 2^(1/6) is the minimum of the potential


pair_style      lj/cut 1.12246152962189
#pair_style      lj/cut 3

#
#  pair_modify shift yes adds a constant to the potential such

#  that E(r_cut)=0. Forces remains unchanged.
#

pair_modify     shift yes

#
#  pair_coeff for lj/cut, specify 4:
#    * atom type interacting with
#    * atom type
#    * epsilon (energy units)
#    * sigma (distance units)
#

pair_coeff      1 1 1.0 1.0
###################################################################

###################################################################
# Pair interaction between non-bonded atoms
#
#  soft potential, for PUSHING apart overlapping atoms
#  potential E=A*(1 + cos(pi*r/r_c))
#
#  1.12246 = 2^(1/6) is the cut-off r_c

#pair_style     soft 1.12246152962189

#
#  pair_coeff for soft, specify 3:
#    * atom type interacting with
#    * atom type
#    * A
#
#

#pair_coeff      1 1 100.0
###################################################################

###################################################################
# Pair interaction between bonded atoms
#
# Fene potential + Lennard Jones 12-6:

#
#  E= - 0.5 K R0^2 ln[ 1- (r/R0)^2]
#     + 4epsilon[ (sigma/r)^12 - (sigma/r)^6] + epsilon
#

bond_style   fene


#
# For style fene, specify:
#   * bond type
#   * K (energy/distance^2)
#   * R0 (distance)
#   * epsilon (energy)  (LJ component)
#   * sigma (distance)  (LJ component)
#


special_bonds fene #<=== I M P O R T A N T (new command)
Finding 1-2 1-3 1-4 neighbors ...
  special bond factors lj:    0        1        1       
  special bond factors coul:  0        1        1       
     3 = max # of 1-2 neighbors
     9 = max # of special neighbors
  special bonds CPU = 0.001 seconds

bond_coeff   1   30   2   1.0   1.0


###################################################

###################################################################
# Pair interaction between bonded atoms
#
# Harmonic potential:
#
#  E= K * (R-R0)^2
#

#bond_style   harmonic

#
# For style harmonic, specify:
#   * bond type
#   * K (energy/distance^2)
#   * R0 (distance)
#

#bond_coeff   1   60.0   1.0
#bond_coeff   2   harmonic 0.1   1.0

###################################################
compute 1 all gyration
variable rog equal c_1
#compute 2 all coord/atom cutoff 1.1

#dump 2 all custom 10000 contact_number.dump id c_2


###
# Set up fixes
###
thermo_style   custom   step  temp enthalpy c_1
fix 1 all nve   ###NVE ensemble

fix 2 all   langevin   1.0 1.0 1.0  778655   ###Langevin integrator Tstart Tstop 1/friction rndseed


##### Sample thermodynamic info  (temperature, energy, pressure, etc.) #####
thermo 1000









############################################################################

###
# set timestep of integrator

timestep 0.01

###
# run integration for a number of steps
###
#run 0
#variable r equal c_1
#if "$r < 63.1" then "quit 1"

# lj potential minimum, cause molecule to explore
run 100000
Generated 0 of 0 mixed pair_coeff terms from geometric mixing rule
Last active /omp style is angle_style cosine/omp
Neighbor list info ...
  update: every = 1 steps, delay = 1 steps, check = yes
  max neighbors/atom: 2000, page size: 100000
  master list distance cutoff = 5.1224615
  ghost atom cutoff = 5.1224615
  binsize = 2.5612308, bins = 781 781 781
  1 neighbor lists, perpetual/occasional/extra = 1 0 0
  (1) pair lj/cut/omp, perpetual
      attributes: half, newton on, omp
      pair build: half/bin/newton/omp
      stencil: half/bin/3d
      bin: standard
WARNING: Communication cutoff 5.12246152962189 is shorter than a bond length based estimate of 5.455. This may lead to errors. (src/comm.cpp:723)
Per MPI rank memory allocation (min/avg/max) = 1860 | 1860 | 1860 Mbytes
   Step          Temp         Enthalpy         c_1      
         0   0              13.254575      69.162284    
      1000   1.0057456      18.096892      68.554466    
      2000   1.0213004      18.53256       67.8426      
      3000   0.98168795     18.711339      67.401726    
      4000   1.0200887      19.038947      66.478119    
      5000   1.0056996      19.55749       65.618794    
      6000   1.041765       19.720682      65.004028    
      7000   0.91423485     19.087268      64.409097    
      8000   0.99131753     19.60197       63.582364    
      9000   0.93384096     18.641092      62.932286    
     10000   1.0198336      19.78582       62.704549    
     11000   0.98569717     19.450582      62.432143    
     12000   1.0083637      18.785321      61.950853    
     13000   0.97783292     19.698413      61.531911    
     14000   1.1012403      19.676809      61.440513    
     15000   1.0801814      19.84902       60.757792    
     16000   1.0314317      19.103857      60.533473    
     17000   1.0277367      19.666906      60.40381     
     18000   0.93478235     19.381179      59.899731    
     19000   0.90326202     18.930791      59.620473    
     20000   0.96847857     18.891808      59.364108    
     21000   1.0322283      19.577729      59.004428    
     22000   1.0165811      18.823439      58.660381    
     23000   1.0446045      19.83087       58.32113     
     24000   0.98548993     19.972775      57.674184    
     25000   0.9989969      19.762805      57.240302    
     26000   0.99409652     19.90264       56.853541    
     27000   0.97431067     19.340975      56.349885    
     28000   1.0701623      20.776901      56.174651    
     29000   0.98938392     19.836385      56.187999    
     30000   0.90967517     20.133053      55.687171    
     31000   1.0182239      19.671146      55.289375    
     32000   1.0254152      20.209152      54.9541      
     33000   1.0946792      20.905631      55.070206    
     34000   1.051323       20.087371      54.981888    
     35000   0.94701319     19.83168       54.493586    
     36000   0.95693852     20.465923      54.208212    
     37000   0.9385847      20.417101      54.087953    
     38000   1.001187       20.57118       53.911039    
     39000   0.99701069     19.842023      53.894388    
     40000   1.0894751      20.87653       53.615642    
     41000   1.0460959      19.809004      53.819185    
     42000   1.0831353      19.892963      53.668738    
     43000   1.0043229      20.057853      53.435584    
     44000   0.96669005     20.014461      53.830219    
     45000   0.95323461     19.797248      53.647647    
     46000   1.0622725      20.42244       53.600134    
     47000   0.96257639     19.384782      53.721807    
     48000   1.0130754      20.674717      53.333227    
     49000   0.9595852      19.928276      53.149033    
     50000   1.0711484      20.289237      52.692279    
     51000   1.014556       19.81221       52.420067    
     52000   1.0116336      20.129762      51.91681     
     53000   1.0122814      20.477555      51.785286    
     54000   0.99204509     20.288701      51.657818    
     55000   1.027753       20.399427      51.456937    
     56000   1.0047502      19.980416      50.732659    
     57000   0.90366102     19.890043      50.375251    
     58000   1.0406586      20.92534       50.170158    
     59000   0.98594889     20.939207      49.992447    
     60000   1.0777111      20.24665       49.938008    
     61000   1.0065381      19.900067      49.6624      
     62000   0.92621527     19.67799       49.553896    
     63000   0.95771046     19.863706      49.147686    
     64000   1.0027631      20.036251      49.216289    
     65000   1.0752926      19.913874      49.096732    
     66000   1.0238999      19.966884      48.854647    
     67000   1.0588826      20.579987      48.651152    
     68000   1.0245545      20.432987      48.660458    
     69000   1.0495056      19.471364      48.499841    
     70000   0.99183726     20.41953       48.468669    
     71000   0.93778029     19.84213       48.221088    
     72000   0.99811953     19.55756       47.903196    
     73000   0.97194274     20.289791      47.897526    
     74000   0.99784864     19.700384      47.374689    
     75000   0.97554861     20.409649      47.124744    
     76000   0.98262564     20.074948      46.995344    
     77000   0.96623289     19.973868      46.925547    
     78000   1.0435515      20.672498      47.155971    
     79000   1.0324294      20.793119      46.750738    
     80000   1.0838679      20.543016      46.367673    
     81000   0.98474157     20.245974      46.349815    
     82000   0.98125353     21.17933       46.498388    
     83000   1.0156957      20.160061      46.028294    
     84000   1.0001586      20.498548      45.965609    
     85000   0.99690888     20.437145      45.840613    
     86000   1.0037823      20.053678      45.617799    
     87000   1.0404874      20.141111      45.537258    
     88000   0.91963713     19.351985      45.550149    
     89000   1.0932282      20.571285      44.89837     
     90000   1.0100044      20.290093      45.038155    
     91000   0.99751209     19.527305      45.134901    
     92000   0.98419577     20.336964      45.015315    
     93000   1.0092145      19.671463      44.822217    
     94000   1.0853195      20.633281      44.498132    
     95000   0.95595149     19.253341      44.202267    
     96000   1.067853       21.582049      43.723748    
     97000   0.97215351     19.641909      43.7357      
     98000   1.0171765      20.315747      43.669028    
     99000   1.062855       19.940777      43.890962    
    100000   0.97264525     20.016917      43.734741    
Loop time of 279.182 on 2 procs for 100000 steps with 400 atoms

Performance: 309475.371 tau/day, 358.189 timesteps/s
94.6% CPU use with 1 MPI tasks x 2 OpenMP threads

MPI task timing breakdown:
Section |  min time  |  avg time  |  max time  |%varavg| %total
---------------------------------------------------------------
Pair    | 0.62783    | 0.62783    | 0.62783    |   0.0 |  0.22
Bond    | 1.2187     | 1.2187     | 1.2187     |   0.0 |  0.44
Neigh   | 273.9      | 273.9      | 273.9      |   0.0 | 98.11
Comm    | 0.02474    | 0.02474    | 0.02474    |   0.0 |  0.01
Output  | 0.26882    | 0.26882    | 0.26882    |   0.0 |  0.10
Modify  | 2.9624     | 2.9624     | 2.9624     |   0.0 |  1.06
Other   |            | 0.1757     |            |       |  0.06

Nlocal:            400 ave         400 max         400 min
Histogram: 1 0 0 0 0 0 0 0 0 0
Nghost:              0 ave           0 max           0 min
Histogram: 1 0 0 0 0 0 0 0 0 0
Neighs:           2705 ave        2705 max        2705 min
Histogram: 1 0 0 0 0 0 0 0 0 0

Total # of neighbors = 2705
Ave neighs/atom = 6.7625
Ave special neighs/atom = 1.995
Neighbor list builds = 1036
Dangerous builds = 0

# Replace lj potential, now collapse
pair_style      lj/cut 3

# Cutoff simul when gyration under 7
# Variable created with equal requires v_ + 'name'
fix 3 all halt 1000 v_rog < 7

run 5000000
Generated 0 of 0 mixed pair_coeff terms from geometric mixing rule
Last active /omp style is angle_style cosine/omp
Per MPI rank memory allocation (min/avg/max) = 1860 | 1860 | 1860 Mbytes
   Step          Temp         Enthalpy         c_1      
    100000   0.97264525     19.281225      43.734741    
    101000   1.0169825      19.901758      43.508918    
    102000   0.96564946     19.68251       43.087317    
    103000   1.0392421      19.325932      42.498243    
    104000   1.0323192      19.964543      42.072331    
    105000   0.96879557     18.911409      41.709861    
    106000   1.0548286      20.14797       41.425679    
    107000   1.0774583      19.407625      41.174688    
    108000   1.0923235      19.72115       41.257501    
    109000   1.0260842      18.735982      41.021629    
    110000   0.9940002      19.662715      40.523385    
    111000   0.99875968     19.312498      40.273829    
    112000   0.96316694     19.792643      39.890058    
    113000   1.0026758      19.442437      39.562605    
    114000   0.97849906     18.212959      39.429151    
    115000   0.9856991      18.607234      39.182441    
    116000   1.004786       19.295977      38.99624     
    117000   0.99606512     18.945465      38.76987     
    118000   1.0203638      19.197596      38.734969    
    119000   1.0271125      19.573036      38.656798    
    120000   1.0300709      18.425896      38.583102    
    121000   0.97278292     18.768545      38.046706    
    122000   0.95323536     19.373207      37.941828    
    123000   1.0456731      19.671712      37.658917    
    124000   1.0518913      18.428354      37.243337    
    125000   1.0457041      19.863474      37.002657    
    126000   1.0330432      19.652733      36.919707    
    127000   0.98456882     19.110247      36.75162     
    128000   0.95299437     18.694792      36.632805    
    129000   1.0639277      19.173787      36.680986    
    130000   0.91192872     18.830658      36.569334    
    131000   1.0129582      19.568172      36.077526    
    132000   1.0562261      19.307134      35.627561    
    133000   0.97390859     19.083497      35.360916    
    134000   1.0157003      18.900473      35.076758    
    135000   1.0593759      19.006595      34.838418    
    136000   1.0040253      19.362196      34.575265    
    137000   0.99912197     19.252115      34.385934    
    138000   1.0302337      18.755038      34.308447    
    139000   1.0556458      18.544112      34.012276    
    140000   1.0259225      18.758456      33.758763    
    141000   0.90754008     19.224514      33.694732    
    142000   1.0435948      19.368063      33.572449    
    143000   1.0023516      19.136649      33.152072    
    144000   0.99807631     19.531523      32.831939    
    145000   0.98811959     19.237987      32.590688    
    146000   1.081831       18.500275      32.498779    
    147000   1.0319157      18.854315      32.09903     
    148000   1.0345415      18.628792      32.158432    
    149000   1.0347013      18.677295      31.770931    
    150000   1.0226669      18.121805      31.308629    
    151000   1.0078884      18.429151      30.919352    
    152000   0.95411933     18.644323      30.770475    
    153000   1.0313063      17.421834      30.48527     
    154000   1.0538208      19.47968       30.429478    
    155000   1.0634885      19.011949      30.185258    
    156000   0.93526546     17.897185      30.248474    
    157000   0.97753271     18.870128      29.947542    
    158000   1.0363429      18.907353      29.761223    
    159000   0.90249563     17.747845      29.396352    
    160000   0.88829658     18.281098      28.815015    
    161000   1.0586911      18.749129      28.643242    
    162000   0.97838685     18.027781      28.003653    
    163000   1.0747287      18.490837      27.779309    
    164000   1.0706582      18.665231      27.972107    
    165000   1.0102677      18.9902        27.636259    
    166000   1.0487086      18.367942      27.826441    
    167000   1.0007586      18.621401      27.250059    
    168000   0.97040735     18.66271       26.828252    
    169000   0.97249697     18.528591      26.248757    
    170000   0.96117162     18.113117      25.951972    
    171000   0.92923166     18.946744      25.784377    
    172000   1.0142289      19.551578      25.352961    
    173000   0.93121918     19.107248      24.922884    
    174000   1.0004666      20.142579      24.635792    
    175000   1.0463815      18.709021      24.389234    
    176000   0.97221338     19.010963      23.808187    
    177000   0.99677206     18.079892      23.621874    
    178000   1.0177179      18.273799      23.186921    
    179000   0.98958826     19.046934      22.543664    
    180000   1.0081346      18.122518      22.226224    
    181000   0.97278561     18.176781      21.506267    
    182000   1.0416639      18.513288      21.120919    
    183000   0.90516031     18.336165      20.914165    
    184000   1.0266676      18.535731      20.454618    
    185000   1.0722041      18.613483      20.366177    
    186000   1.0139746      18.781597      20.005717    
    187000   0.96460886     17.76073       20.038771    
    188000   0.96884109     18.235495      19.895222    
    189000   0.99144471     17.905878      19.399474    
    190000   1.0075769      18.164901      19.142129    
    191000   0.9221549      18.635083      18.325614    
    192000   1.0449457      19.109072      17.842551    
    193000   0.96876642     18.328737      17.210498    
    194000   1.0152122      18.299883      16.988975    
    195000   0.98743123     18.953148      16.75119     
    196000   1.0233508      17.019494      16.548563    
    197000   1.0045163      17.518186      16.421971    
    198000   0.97409423     17.484833      16.181464    
    199000   1.0499913      17.64697       15.821127    
    200000   0.99635927     18.19189       15.455307    
    201000   0.98624023     18.521095      15.366003    
    202000   1.0109409      17.737316      14.772299    
    203000   0.98729465     17.794909      14.735879    
    204000   1.0392427      18.618258      14.923405    
    205000   0.99881241     18.273009      14.559913    
    206000   0.95155438     17.926171      14.306128    
    207000   0.93048658     18.300282      13.928897    
    208000   0.94066219     18.100478      13.72632     
    209000   0.99918737     17.937571      13.255749    
    210000   1.0195348      18.306387      12.99914     
    211000   1.0955522      18.93664       13.05967     
    212000   1.0059561      18.052061      12.693682    
    213000   0.94767111     17.779551      12.598317    
    214000   1.0297023      18.647898      12.610686    
    215000   1.0102492      18.835582      12.634608    
    216000   1.0241327      17.575613      12.789881    
    217000   0.93216135     18.089256      12.316959    
    218000   1.0231031      17.8102        12.090639    
    219000   0.90848174     18.65704       12.110497    
    220000   0.97322674     18.320673      11.765495    
    221000   0.94735363     18.248359      11.238634    
    222000   0.9940918      17.987946      11.070591    
    223000   1.0035415      17.679083      11.26854     
    224000   1.0091831      18.751023      11.073716    
    225000   1.0343706      18.534432      10.902186    
    226000   1.0271226      18.205729      10.712081    
    227000   0.9840927      18.400236      10.36852     
    228000   0.96989738     17.207309      10.246801    
    229000   0.97002447     17.069272      10.084626    
    230000   0.99782347     16.895419      9.9221051    
    231000   1.0158035      18.606092      9.4240794    
    232000   0.95644096     16.842508      8.8992804    
    233000   1.0497491      17.917191      9.0821927    
    234000   1.024688       18.399407      9.0072837    
    235000   0.94816155     17.843789      9.2207737    
    236000   0.98967979     17.339403      9.0274843    
    237000   0.95179951     17.338886      8.7361027    
    238000   1.0055794      17.848859      8.4472166    
    239000   1.0115455      17.836797      8.398135     
    240000   1.0124805      18.280793      8.3466061    
    241000   1.0357624      18.164493      8.3728307    
    242000   1.0202806      18.396011      8.128087     
    243000   0.95159892     18.041107      8.0292472    
    244000   1.07858        17.063487      7.4752203    
    245000   1.018373       17.325556      7.2957107    
    246000   1.0268542      17.940758      7.1076286    
Fix halt condition for fix-id 3 met on step 247000 with value 6.750215951645454 (src/fix_halt.cpp:237)
    247000   1.027774       18.98049       6.750216     
Loop time of 159.492 on 2 procs for 147000 steps with 400 atoms

Performance: 796327.556 tau/day, 921.675 timesteps/s
104.1% CPU use with 1 MPI tasks x 2 OpenMP threads

MPI task timing breakdown:
Section |  min time  |  avg time  |  max time  |%varavg| %total
---------------------------------------------------------------
Pair    | 11.212     | 11.212     | 11.212     |   0.0 |  7.03
Bond    | 1.9164     | 1.9164     | 1.9164     |   0.0 |  1.20
Neigh   | 141.08     | 141.08     | 141.08     |   0.0 | 88.46
Comm    | 0.040755   | 0.040755   | 0.040755   |   0.0 |  0.03
Output  | 0.39916    | 0.39916    | 0.39916    |   0.0 |  0.25
Modify  | 4.5585     | 4.5585     | 4.5585     |   0.0 |  2.86
Other   |            | 0.2851     |            |       |  0.18

Nlocal:            400 ave         400 max         400 min
Histogram: 1 0 0 0 0 0 0 0 0 0
Nghost:              0 ave           0 max           0 min
Histogram: 1 0 0 0 0 0 0 0 0 0
Neighs:          36364 ave       36364 max       36364 min
Histogram: 1 0 0 0 0 0 0 0 0 0

Total # of neighbors = 36364
Ave neighs/atom = 90.91
Ave special neighs/atom = 1.995
Neighbor list builds = 1285
Dangerous builds = 0

# This simulation is done
# Move onto the next one
clear
  using 2 OpenMP thread(s) per MPI task
package omp 0
using multi-threaded neighbor list subroutines
next f
jump SELF

###
# Reference paper:
# K. Kremer and G. S. Grest
# Dynamics of entangled linear polymer melts: A molecular-dynamics simulation
# J Chem Phys 92, 5057 (1990)

##################################
# MIHIR: for branched polymers
# LJ minimum first to expand and explore, then collapse
###

###
# Looping through the various N1B3 polymers to simulate,
# define variables to switch through
#variable f index bb66nuc1bl33bn3d30tot100 bb133nuc1bl66bn3d30tot200 bb200nuc1bl100bn3d30tot300 bb266nuc1bl133bn3d30tot400 bb333nuc1bl166bn3d30tot500 bb400nuc1bl200bn3d30tot600 bb466nuc1bl233bn3d30tot700 bb533nuc1bl266bn3d30tot800 bb600nuc1bl300bn3d30tot900 bb666nuc1bl333bn3d30tot1000 bb733nuc1bl366bn3d30tot1100 bb800nuc1bl400bn3d30tot1200
# variable f index bb66nuc1bl33bn3d30tot100V3 bb133nuc1bl66bn3d30tot200V3 bb200nuc1bl100bn3d30tot300V3 bb266nuc1bl133bn3d30tot400V3 bb333nuc1bl166bn3d30tot500V3 bb400nuc1bl200bn3d30tot600V3 bb466nuc1bl233bn3d30tot700V3 bb533nuc1bl266bn3d30tot800V3 bb600nuc1bl300bn3d30tot900V3 bb666nuc1bl333bn3d30tot1000V3 bb733nuc1bl366bn3d30tot1100V3 bb800nuc1bl400bn3d30tot1200V3
variable f index bb66nuc1bl33bn3d30tot100V2 bb133nuc1bl66bn3d30tot200V2 bb200nuc1bl100bn3d30tot300V2 bb266nuc1bl133bn3d30tot400V2 bb333nuc1bl166bn3d30tot500V2 bb400nuc1bl200bn3d30tot600V2 bb466nuc1bl233bn3d30tot700V2 bb533nuc1bl266bn3d30tot800V2 bb600nuc1bl300bn3d30tot900V2 bb666nuc1bl333bn3d30tot1000V2 bb733nuc1bl366bn3d30tot1100V2 bb800nuc1bl400bn3d30tot1200V2
#variable f index bb733nuc1bl366bn3d30tot1100V2 bb800nuc1bl400bn3d30tot1200V2
###


###
# Box and units  (use LJ units and periodic boundaries)
###

units lj
log N1B3/trial2/logs3/$f.log
log N1B3/trial2/logs3/bb333nuc1bl166bn3d30tot500V2.log
