#atom_style bond #no stiffness
atom_style angle #with stiffness

boundary        p p p
###
# Pair interactions require lists of neighbours to be calculated
###

#neighbor 0.3 bin
neighbor 4 bin

neigh_modify every 1 delay 1 check yes
atom_modify sort 0 0
### Generate RESTART file, SPECIAL format, not a .txt file ###
### Useful if simulation crashes ###

restart 1000000 N1B3/trial2/restarts3/$f.restart
restart 1000000 N1B3/trial2/restarts3/bb400nuc1bl200bn3d30tot600V2.restart
#############################



### READ "start" data file ###

read_data N1B3/trial2/dats2/$f.dat
read_data N1B3/trial2/dats2/bb400nuc1bl200bn3d30tot600V2.dat
Reading data file ...
  orthogonal box = (-1000 -1000 -1000) to (1000 1000 1000)
  1 by 1 by 1 MPI processor grid
  reading atoms ...
  601 atoms
  scanning bonds ...
  2 = max bonds/atom
  scanning angles ...
  3 = max angles/atom
  reading bonds ...
  600 bonds
  reading angles ...
  600 angles
Finding 1-2 1-3 1-4 neighbors ...
  special bond factors lj:    0        0        0       
  special bond factors coul:  0        0        0       
     3 = max # of 1-2 neighbors
     3 = max # of 1-3 neighbors
     6 = max # of 1-4 neighbors
     9 = max # of special neighbors
  special bonds CPU = 0.002 seconds
  read_data CPU = 0.153 seconds

######################

### READ "REstart" data file ###

######################



###
# Define groups (atom type 1 is group 'all')
###
group all type 1
601 atoms in group all


###
# Dump configs - "simple dumpings"
###

###
# Dump configs + box coords
###

dump   1   all   custom   1000  N1B3/trial2/trjs3/$f.lammpstrj  id  x y z  ix iy iz
dump   1   all   custom   1000  N1B3/trial2/trjs3/bb400nuc1bl200bn3d30tot600V2.lammpstrj  id  x y z  ix iy iz
dump_modify   1   format line "%d %.5f %.5f %.5f %d %d %d"

########################################################################


###################################################################
# Stiffness term
#
# E = K * (1+cos(theta)), K>0
#
angle_style   cosine
#change this coefficient to change stiffness (e.g. 1,5,10)
angle_coeff   1 1.0
###################################################################

###################################################################
# Pair interaction between non-bonded atoms
#
#  Lennard-Jones 12-6 potential with cutoff:
#  potential E=4epsilon[ (sigma/r)^12 - (sigma/r)^6]  for r<r_cut
#
#  1.12246 = 2^(1/6) is the minimum of the potential


pair_style      lj/cut 1.12246152962189
#pair_style      lj/cut 3

#
#  pair_modify shift yes adds a constant to the potential such

#  that E(r_cut)=0. Forces remains unchanged.
#

pair_modify     shift yes

#
#  pair_coeff for lj/cut, specify 4:
#    * atom type interacting with
#    * atom type
#    * epsilon (energy units)
#    * sigma (distance units)
#

pair_coeff      1 1 1.0 1.0
###################################################################

###################################################################
# Pair interaction between non-bonded atoms
#
#  soft potential, for PUSHING apart overlapping atoms
#  potential E=A*(1 + cos(pi*r/r_c))
#
#  1.12246 = 2^(1/6) is the cut-off r_c

#pair_style     soft 1.12246152962189

#
#  pair_coeff for soft, specify 3:
#    * atom type interacting with
#    * atom type
#    * A
#
#

#pair_coeff      1 1 100.0
###################################################################

###################################################################
# Pair interaction between bonded atoms
#
# Fene potential + Lennard Jones 12-6:

#
#  E= - 0.5 K R0^2 ln[ 1- (r/R0)^2]
#     + 4epsilon[ (sigma/r)^12 - (sigma/r)^6] + epsilon
#

bond_style   fene


#
# For style fene, specify:
#   * bond type
#   * K (energy/distance^2)
#   * R0 (distance)
#   * epsilon (energy)  (LJ component)
#   * sigma (distance)  (LJ component)
#


special_bonds fene #<=== I M P O R T A N T (new command)
Finding 1-2 1-3 1-4 neighbors ...
  special bond factors lj:    0        1        1       
  special bond factors coul:  0        1        1       
     3 = max # of 1-2 neighbors
     9 = max # of special neighbors
  special bonds CPU = 0.001 seconds

bond_coeff   1   30   2   1.0   1.0


###################################################

###################################################################
# Pair interaction between bonded atoms
#
# Harmonic potential:
#
#  E= K * (R-R0)^2
#

#bond_style   harmonic

#
# For style harmonic, specify:
#   * bond type
#   * K (energy/distance^2)
#   * R0 (distance)
#

#bond_coeff   1   60.0   1.0
#bond_coeff   2   harmonic 0.1   1.0

###################################################
compute 1 all gyration
variable rog equal c_1
#compute 2 all coord/atom cutoff 1.1

#dump 2 all custom 10000 contact_number.dump id c_2


###
# Set up fixes
###
thermo_style   custom   step  temp enthalpy c_1
fix 1 all nve   ###NVE ensemble

fix 2 all   langevin   1.0 1.0 1.0  778655   ###Langevin integrator Tstart Tstop 1/friction rndseed


##### Sample thermodynamic info  (temperature, energy, pressure, etc.) #####
thermo 1000









############################################################################

###
# set timestep of integrator

timestep 0.01

###
# run integration for a number of steps
###
#run 0
#variable r equal c_1
#if "$r < 63.1" then "quit 1"

# lj potential minimum, cause molecule to explore
run 100000
Generated 0 of 0 mixed pair_coeff terms from geometric mixing rule
Last active /omp style is angle_style cosine/omp
Neighbor list info ...
  update: every = 1 steps, delay = 1 steps, check = yes
  max neighbors/atom: 2000, page size: 100000
  master list distance cutoff = 5.1224615
  ghost atom cutoff = 5.1224615
  binsize = 2.5612308, bins = 781 781 781
  1 neighbor lists, perpetual/occasional/extra = 1 0 0
  (1) pair lj/cut/omp, perpetual
      attributes: half, newton on, omp
      pair build: half/bin/newton/omp
      stencil: half/bin/3d
      bin: standard
WARNING: Communication cutoff 5.12246152962189 is shorter than a bond length based estimate of 5.455. This may lead to errors. (src/comm.cpp:723)
Per MPI rank memory allocation (min/avg/max) = 1860 | 1860 | 1860 Mbytes
   Step          Temp         Enthalpy         c_1      
         0   0              13.402001      99.290262    
      1000   0.98923355     18.711965      98.765026    
      2000   0.99665791     18.898302      98.359656    
      3000   1.0122949      18.909542      98.245106    
      4000   0.97139453     19.141352      97.997591    
      5000   1.0409402      19.168006      97.600539    
      6000   1.0131729      19.56409       96.868555    
      7000   0.97046484     18.992425      96.177375    
      8000   0.96727209     18.584486      95.807277    
      9000   1.0061263      19.23154       95.27363     
     10000   0.97554066     19.419069      94.939067    
     11000   1.0077136      19.409034      94.764005    
     12000   0.98345461     19.514882      94.528047    
     13000   0.94958559     19.116768      94.464256    
     14000   1.0437895      19.356963      94.026       
     15000   1.0367864      19.684757      93.521485    
     16000   1.0513539      19.537901      93.405347    
     17000   1.0038799      19.243909      93.166892    
     18000   0.94486814     18.806503      92.925234    
     19000   1.0131577      19.43375       92.759095    
     20000   1.0444532      19.393627      92.520825    
     21000   1.0026709      19.495463      92.322187    
     22000   1.0338761      19.709524      92.081187    
     23000   1.0082101      19.204843      91.580063    
     24000   0.97772041     18.979129      91.483051    
     25000   0.96735672     19.347484      91.327829    
     26000   1.0249363      19.756659      90.894268    
     27000   1.0061029      19.32848       90.563892    
     28000   1.0888263      20.447462      90.511409    
     29000   1.0392451      20.29262       90.464197    
     30000   1.046854       19.36985       90.610021    
     31000   0.99528093     19.333525      90.324329    
     32000   0.95210142     18.98675       90.275603    
     33000   0.97282132     19.95793       90.210482    
     34000   0.95556783     19.072475      90.232722    
     35000   1.0326361      19.677142      89.893644    
     36000   0.94829283     19.868799      89.752375    
     37000   0.968924       20.012586      89.656276    
     38000   1.0268364      19.881784      89.615585    
     39000   1.0202572      19.978623      89.140959    
     40000   0.89990719     19.280991      88.732466    
     41000   1.0053123      19.658949      88.74391     
     42000   0.98081844     19.959555      88.494614    
     43000   1.055572       20.048921      88.273034    
     44000   1.0192345      19.874245      88.175264    
     45000   0.95379601     19.827661      87.85166     
     46000   1.0080878      19.456789      87.971832    
     47000   1.0119377      19.468357      87.845903    
     48000   0.96784406     19.286372      87.513495    
     49000   1.0453747      20.274145      87.30848     
     50000   0.978636       19.817999      87.194617    
     51000   0.99549291     19.668294      87.001135    
     52000   1.031865       20.035634      86.727333    
     53000   0.99084032     20.186162      86.222388    
     54000   0.99605998     19.744945      86.101102    
     55000   1.0510753      19.760784      86.100952    
     56000   0.99278792     19.919834      85.865453    
     57000   1.0135604      20.014373      85.786102    
     58000   1.0041324      19.487908      85.596352    
     59000   1.0242349      19.898021      85.142475    
     60000   1.050496       19.949943      84.855456    
     61000   0.98461654     19.476246      84.882013    
     62000   0.99098484     20.576282      84.58987     
     63000   1.0261591      20.197703      84.371631    
     64000   0.9730946      20.136555      84.023673    
     65000   0.99487306     20.326481      83.52035     
     66000   1.0157934      19.912368      83.600712    
     67000   1.0196478      19.443695      83.603533    
     68000   1.0367321      20.344954      83.502181    
     69000   0.97376307     20.022348      83.585517    
     70000   1.0204623      19.744847      83.62438     
     71000   1.0371815      19.882738      83.759738    
     72000   1.0067922      20.137147      83.827184    
     73000   0.99209672     19.747227      83.36317     
     74000   1.000314       19.70475       83.22643     
     75000   1.0353197      19.935152      83.05388     
     76000   0.95957971     19.531955      82.675507    
     77000   0.98260711     20.170802      82.331167    
     78000   0.99038597     19.676319      82.195111    
     79000   0.96781854     20.021005      82.157778    
     80000   1.0152841      19.321912      82.296524    
     81000   0.98285539     20.608593      82.276017    
     82000   1.0348607      20.490637      82.504843    
     83000   1.0179445      19.778326      82.575275    
     84000   0.98388264     19.996558      82.418129    
     85000   0.94738186     20.455593      82.358189    
     86000   1.0908887      20.045161      81.908867    
     87000   0.96017345     20.51773       81.907294    
     88000   1.0065         20.729662      81.975394    
     89000   0.99705317     20.059324      81.807523    
     90000   1.0019791      20.217853      81.872566    
     91000   1.0234785      19.743405      81.803835    
     92000   1.0309317      19.729116      81.697854    
     93000   1.0642878      20.258404      81.577205    
     94000   0.98575416     20.337399      81.260091    
     95000   1.0391877      20.295387      80.979286    
     96000   0.96664218     20.217996      80.887615    
     97000   0.96388058     20.146148      81.065946    
     98000   0.97740825     20.33329       80.915806    
     99000   0.9567844      20.096212      80.690238    
    100000   1.079675       20.362398      80.580057    
Loop time of 322.411 on 2 procs for 100000 steps with 601 atoms

Performance: 267980.959 tau/day, 310.163 timesteps/s
95.2% CPU use with 1 MPI tasks x 2 OpenMP threads

MPI task timing breakdown:
Section |  min time  |  avg time  |  max time  |%varavg| %total
---------------------------------------------------------------
Pair    | 0.94115    | 0.94115    | 0.94115    |   0.0 |  0.29
Bond    | 1.9479     | 1.9479     | 1.9479     |   0.0 |  0.60
Neigh   | 314.2      | 314.2      | 314.2      |   0.0 | 97.45
Comm    | 0.03493    | 0.03493    | 0.03493    |   0.0 |  0.01
Output  | 0.32963    | 0.32963    | 0.32963    |   0.0 |  0.10
Modify  | 4.6776     | 4.6776     | 4.6776     |   0.0 |  1.45
Other   |            | 0.2799     |            |       |  0.09

Nlocal:            601 ave         601 max         601 min
Histogram: 1 0 0 0 0 0 0 0 0 0
Nghost:              0 ave           0 max           0 min
Histogram: 1 0 0 0 0 0 0 0 0 0
Neighs:           3344 ave        3344 max        3344 min
Histogram: 1 0 0 0 0 0 0 0 0 0

Total # of neighbors = 3344
Ave neighs/atom = 5.5640599
Ave special neighs/atom = 1.9966722
Neighbor list builds = 1056
Dangerous builds = 0

# Replace lj potential, now collapse
pair_style      lj/cut 3

# Cutoff simul when gyration under 7
# Variable created with equal requires v_ + 'name'
fix 3 all halt 1000 v_rog < 7

run 5000000
Generated 0 of 0 mixed pair_coeff terms from geometric mixing rule
Last active /omp style is angle_style cosine/omp
Per MPI rank memory allocation (min/avg/max) = 1860 | 1860 | 1860 Mbytes
   Step          Temp         Enthalpy         c_1      
    100000   1.079675       19.784546      80.580057    
    101000   0.99020866     19.252852      80.406429    
    102000   0.99965396     19.235608      80.146396    
    103000   1.007527       19.725859      79.921213    
    104000   1.0043622      19.463293      79.459002    
    105000   0.97537794     19.284161      79.153198    
    106000   1.0031785      19.596791      78.681788    
    107000   1.0255688      19.849622      78.399041    
    108000   1.0052049      19.917854      77.973514    
    109000   0.93335601     20.137221      77.998444    
    110000   1.0511157      19.426918      77.715629    
    111000   0.9738229      18.904073      77.589593    
    112000   1.0098516      19.990414      77.527596    
    113000   1.0283943      19.933345      77.667457    
    114000   0.98927692     18.902454      77.527342    
    115000   1.0100047      19.604789      77.264472    
    116000   1.0140729      19.248063      77.292421    
    117000   0.92452797     19.795299      77.190461    
    118000   0.97760381     19.254876      77.103996    
    119000   0.99357645     19.263182      76.751029    
    120000   0.99131686     19.179614      76.430593    
    121000   1.0871393      19.665272      75.859247    
    122000   0.95280468     19.218745      75.504066    
    123000   0.99941447     19.124611      74.988939    
    124000   0.94564114     19.097018      74.700058    
    125000   0.99498616     19.279871      74.370599    
    126000   1.0476622      19.819453      74.377544    
    127000   1.0215182      19.294225      74.329098    
    128000   1.0417422      19.54203       74.231259    
    129000   0.98819503     20.126508      73.927499    
    130000   0.96073256     19.034612      73.855962    
    131000   0.95759462     19.291642      73.405751    
    132000   1.0031486      19.211873      73.067282    
    133000   0.94834354     19.361259      72.903259    
    134000   1.033331       19.509465      72.651404    
    135000   0.94243975     18.063592      72.3288      
    136000   0.97659435     19.636835      72.282974    
    137000   0.99989034     19.097308      72.412503    
    138000   0.97392888     18.778462      72.463752    
    139000   0.98217857     19.18762       72.23283     
    140000   1.018359       19.539954      72.041509    
    141000   1.0652587      20.038091      71.573162    
    142000   0.98558818     19.763694      71.314021    
    143000   1.0305699      19.234368      71.263349    
    144000   1.0468016      19.232329      71.024339    
    145000   1.0096341      19.048016      70.425279    
    146000   1.0315708      19.153645      70.243134    
    147000   1.0120938      19.740449      70.25584     
    148000   0.9855218      19.636054      70.248898    
    149000   1.0052943      19.377047      69.736935    
    150000   0.93516199     18.562538      69.592593    
    151000   0.96021102     18.812902      69.332435    
    152000   0.9765844      19.238674      69.333102    
    153000   0.9976318      19.102437      69.291066    
    154000   1.0122348      19.450702      68.691739    
    155000   0.96908969     19.402926      68.488602    
    156000   0.99146844     18.989467      68.34322     
    157000   1.021009       18.705641      68.061003    
    158000   0.98199598     19.249801      68.046718    
    159000   0.97308356     18.918772      68.004361    
    160000   0.97467435     19.722211      67.616005    
    161000   0.9888871      19.381392      67.358514    
    162000   1.0047978      19.545616      66.787354    
    163000   0.99510594     19.341215      66.569687    
    164000   1.0056805      19.254662      66.311539    
    165000   0.99255935     18.750389      65.826935    
    166000   1.0109269      19.890215      65.593226    
    167000   1.0837432      19.1123        65.39442     
    168000   0.98976799     19.015792      65.190135    
    169000   1.0103189      18.562096      64.804343    
    170000   0.97467095     18.707044      64.542892    
    171000   1.0094194      19.047896      64.364065    
    172000   0.99928153     19.119735      64.273737    
    173000   1.0231491      19.904326      64.241536    
    174000   0.98906384     18.8549        63.962563    
    175000   1.0230731      19.844253      63.844544    
    176000   1.0053729      19.231492      63.642241    
    177000   0.98562756     18.916725      63.440373    
    178000   0.96092559     18.934127      63.228634    
    179000   1.0038118      18.572722      63.328684    
    180000   1.0282555      19.267922      63.565475    
    181000   1.0230143      19.303751      62.972366    
    182000   1.0160801      18.980659      62.730892    
    183000   1.0021674      19.635888      62.125788    
    184000   0.99764065     18.873323      61.896321    
    185000   1.0095544      19.030012      61.74897     
    186000   1.060778       19.372451      61.492505    
    187000   1.0325641      19.144923      61.215361    
    188000   0.98284506     19.224237      60.995328    
    189000   0.98903825     18.98191       61.028811    
    190000   1.02145        19.6499        60.966144    
    191000   0.96189969     18.265289      60.851344    
    192000   0.92583304     18.56458       60.170044    
    193000   0.96646576     18.129737      59.711992    
    194000   0.99002854     19.203611      59.48215     
    195000   1.0112925      18.442175      59.261009    
    196000   1.0288917      19.266998      59.24936     
    197000   0.97456921     18.727995      59.123326    
    198000   0.98851877     18.555112      59.136882    
    199000   0.99151663     18.655403      59.411427    
    200000   0.98773184     19.74564       59.328906    
    201000   1.0403388      19.206991      59.160177    
    202000   0.9344653      18.907909      59.255174    
    203000   0.95825546     18.370041      59.100852    
    204000   0.975116       19.471272      59.098568    
    205000   1.033468       18.797228      59.109602    
    206000   1.0333932      18.922237      58.766621    
    207000   0.99082519     19.03194       58.717901    
    208000   0.99760067     18.859125      58.733093    
    209000   1.0412409      18.91192       58.54287     
    210000   0.99922522     18.251443      58.200642    
    211000   1.0099667      18.942877      57.954207    
    212000   1.0045921      18.657662      57.781057    
    213000   0.98122715     19.247664      57.623777    
    214000   0.97597884     18.461506      57.724048    
    215000   1.0151618      18.231096      57.454221    
    216000   1.0478605      18.375008      57.157606    
    217000   1.036127       18.348161      57.168666    
    218000   1.0069297      18.593875      56.637456    
    219000   1.0100802      18.791335      56.507155    
    220000   0.99752426     18.496555      56.509532    
    221000   0.96114596     18.306806      56.370211    
    222000   0.99515911     18.420008      56.253502    
    223000   1.0391232      18.962828      56.010696    
    224000   0.97105498     18.109541      55.881696    
    225000   0.97196227     18.566985      56.058301    
    226000   0.9773455      18.793206      56.11163     
    227000   0.98450558     18.329029      56.013089    
    228000   0.98148904     18.597838      55.85722     
    229000   1.023033       18.915833      55.865511    
    230000   1.000231       18.087699      55.708355    
    231000   0.93373675     18.575775      55.625618    
    232000   1.0258793      19.516954      55.46367     
    233000   1.0146754      18.295558      55.109016    
    234000   0.99817146     18.724853      54.929215    
    235000   0.95844039     18.385283      54.63202     
    236000   0.97708724     18.895195      54.41273     
    237000   1.0116885      18.53927       54.366467    
    238000   1.087244       17.731626      54.012139    
    239000   1.0783037      19.168863      53.825649    
    240000   0.98786959     18.893264      53.674781    
    241000   0.92026578     18.542255      53.470912    
    242000   0.95958138     18.356304      53.15261     
    243000   0.99925074     19.130796      53.218452    
    244000   0.99077585     18.31078       53.081847    
    245000   0.99253233     18.263076      52.975544    
    246000   1.0193887      18.807436      53.303884    
    247000   1.0088462      19.031002      53.09457     
    248000   0.97507942     18.43798       52.771226    
    249000   0.99189088     18.793145      52.55263     
    250000   1.0145046      17.777638      52.521642    
    251000   1.0043406      19.609614      52.439714    
    252000   0.95924445     17.880285      52.243258    
    253000   1.0339973      18.572033      52.338915    
    254000   1.0187808      17.955321      51.974581    
    255000   0.95905114     18.18098       51.833966    
    256000   0.97195849     18.527757      51.820438    
    257000   1.0437732      17.867026      51.596177    
    258000   1.0398935      18.066411      51.364262    
    259000   1.0412031      18.942186      51.011602    
    260000   0.98550415     19.008174      51.140389    
    261000   1.0534809      18.389908      51.17013     
    262000   1.019082       18.933197      50.729056    
    263000   0.9842883      18.377993      50.363849    
    264000   1.0186781      18.570993      50.412361    
    265000   0.9638327      18.977456      50.137502    
    266000   1.0472112      18.551189      49.980779    
    267000   1.0006519      18.441415      49.827436    
    268000   1.0327109      18.524364      49.64558     
    269000   0.9713755      18.658224      49.620836    
    270000   0.99803383     19.203452      49.221754    
    271000   0.96590875     17.682921      49.039107    
    272000   0.9922766      18.254871      48.810963    
    273000   1.022395       18.741316      48.591138    
    274000   1.0431642      18.566383      48.302037    
    275000   0.9888397      18.907893      48.381687    
    276000   1.045433       18.195258      48.254637    
    277000   1.0128862      18.568674      48.079513    
    278000   1.0565531      18.351671      47.717975    
    279000   1.0156414      18.300231      47.315616    
    280000   0.95930751     18.250941      47.225324    
    281000   0.99223472     18.805345      46.905416    
    282000   0.95480103     19.480016      46.248507    
    283000   1.0326586      18.611542      46.023567    
    284000   0.95063862     18.117374      45.88544     
    285000   1.0448406      18.807015      45.805019    
    286000   0.99378733     18.217896      45.579483    
    287000   1.0480636      18.817008      45.252558    
    288000   0.96290825     17.658708      44.744557    
    289000   0.9639236      18.87129       44.295005    
    290000   1.0055831      18.277027      43.995225    
    291000   1.0589595      17.773817      43.808975    
    292000   1.0232299      18.78736       43.84942     
    293000   1.0140934      18.577838      43.670783    
    294000   1.0073879      17.759215      43.137323    
    295000   1.0521139      18.373043      42.878723    
    296000   1.0646442      18.269034      42.840965    
    297000   1.0020349      18.758111      42.659758    
    298000   0.98371747     18.02419       42.358234    
    299000   1.0310113      18.001176      42.317935    
    300000   1.0370418      18.377251      41.869377    
    301000   0.97842451     18.802084      41.742429    
    302000   1.0960698      18.015835      41.503366    
    303000   0.99112781     17.978532      41.435337    
    304000   0.95488728     17.834346      41.217135    
    305000   0.97018273     18.63399       41.135395    
    306000   1.0279103      18.019935      41.311287    
    307000   1.0132176      17.687701      41.552924    
    308000   0.98193163     18.495487      41.443101    
    309000   1.0445248      18.140112      41.144784    
    310000   1.0339103      17.980971      40.766099    
    311000   1.0107818      18.769833      40.694244    
    312000   0.98421577     18.113302      40.518261    
    313000   1.0006383      17.937778      40.524765    
    314000   1.0051618      18.098319      40.479803    
    315000   1.0454393      18.782562      40.22697     
    316000   1.0315027      18.633305      40.030172    
    317000   0.99937065     17.707134      39.825719    
    318000   0.96034611     17.461672      39.710557    
    319000   0.96997562     17.989504      39.364815    
    320000   0.98481647     18.09423       39.187958    
    321000   1.0419601      17.688443      38.851726    
    322000   0.99024763     17.359516      38.807193    
    323000   1.0090412      18.243104      38.680836    
    324000   0.99775567     17.897305      38.754325    
    325000   1.0012041      18.53021       38.704467    
    326000   1.0128575      18.272473      38.605995    
    327000   0.98794269     18.641244      38.273129    
    328000   0.95569496     18.304296      38.226318    
    329000   0.97538108     18.234226      38.237862    
    330000   1.0345733      18.678318      38.045158    
    331000   1.0043163      18.280361      38.02466     
    332000   0.93877106     17.965662      37.999128    
    333000   0.99383212     17.670137      37.774611    
    334000   0.98934505     17.876524      37.770409    
    335000   1.0080707      18.108027      37.455895    
    336000   1.0447406      18.846008      37.204828    
    337000   1.0081036      18.56644       36.929206    
    338000   1.0222788      18.006396      36.981718    
    339000   0.98707146     17.850994      36.905793    
    340000   1.0098371      18.196357      36.751644    
    341000   1.0095651      18.526763      36.611747    
    342000   0.99742355     18.019352      36.689051    
    343000   0.9893396      18.5887        36.730441    
    344000   1.015085       18.294722      36.560849    
    345000   0.96113383     18.00477       36.540968    
    346000   0.98840042     17.856352      36.200514    
    347000   1.0080126      18.999329      35.892474    
    348000   0.97494243     18.111732      36.131189    
    349000   1.0290889      18.262974      35.995292    
    350000   1.0109814      18.660528      35.95099     
    351000   0.95152103     18.546019      35.964016    
    352000   1.0007686      17.980509      35.798482    
    353000   0.99107247     18.784143      35.748122    
    354000   0.91478268     18.386144      35.636548    
    355000   0.99910801     17.825393      35.589416    
    356000   1.0055769      18.601022      35.644521    
    357000   1.0792343      18.122773      35.491984    
    358000   1.0428821      17.714171      35.09776     
    359000   1.030394       18.829266      35.03896     
    360000   1.0121321      18.039173      34.747363    
    361000   0.97017197     17.15819       34.466411    
    362000   0.98131548     17.499209      34.45198     
    363000   0.98514475     18.581486      34.229051    
    364000   1.0588499      18.149953      34.071095    
    365000   1.0154784      18.022161      33.785816    
    366000   1.0290461      18.627393      33.290804    
    367000   1.008898       18.445199      33.483224    
    368000   1.0279511      18.646401      33.063528    
    369000   0.97832678     19.122208      32.924258    
    370000   1.0251447      18.611967      33.180555    
    371000   1.0530331      17.985383      32.912981    
    372000   0.97792067     17.565795      33.056786    
    373000   1.0237257      17.975931      32.759643    
    374000   0.96803697     17.896838      32.731403    
    375000   1.0233987      18.586625      32.644753    
    376000   0.96261238     17.92817       32.558354    
    377000   1.0072382      18.054219      32.431223    
    378000   1.0109247      17.959704      32.528356    
    379000   1.0121039      18.516601      32.408408    
    380000   1.0118772      18.031498      32.314663    
    381000   1.0058669      17.383346      31.929785    
    382000   0.99190703     18.505495      31.866163    
    383000   0.99413518     17.958383      31.889231    
    384000   0.96325461     17.443972      31.992793    
    385000   1.0290439      17.680497      31.621886    
    386000   0.99412888     18.160975      31.712583    
    387000   0.93947624     18.445286      31.652706    
    388000   0.96357055     17.480655      31.396281    
    389000   1.0153933      18.169477      31.30576     
    390000   0.96251013     17.604568      31.394748    
    391000   1.0114873      18.168143      31.148995    
    392000   0.98545764     18.895852      31.097106    
    393000   0.94945625     17.542379      30.761547    
    394000   1.0386259      18.030027      30.542754    
    395000   0.94074344     16.995678      30.330988    
    396000   1.0378775      17.496826      30.072272    
    397000   0.95282517     17.735107      29.753016    
    398000   0.98157433     18.240558      29.475803    
    399000   0.97749296     18.42141       29.498081    
    400000   1.0285879      18.06071       29.240319    
    401000   0.96586894     17.490988      29.295328    
    402000   0.9358685      18.076558      29.11439     
    403000   1.0339632      18.908442      28.932932    
    404000   0.99194688     17.754956      29.026556    
    405000   1.0333921      18.068576      28.858636    
    406000   1.0144386      17.202235      28.947238    
    407000   0.94280158     17.980114      28.647941    
    408000   0.98763027     17.408835      28.32774     
    409000   0.95861376     18.342861      27.818568    
    410000   1.0179134      17.816557      27.859967    
    411000   0.99070849     17.401815      27.520304    
    412000   1.0421781      18.479737      27.47557     
    413000   1.0222029      18.096264      27.21558     
    414000   1.060924       17.892053      27.064407    
    415000   1.0318317      17.991143      26.614973    
    416000   1.0231897      17.703163      26.45453     
    417000   0.996594       17.646457      26.116692    
    418000   0.99674748     18.022793      26.148468    
    419000   1.0532232      18.619089      26.095962    
    420000   1.007296       18.652103      26.218542    
    421000   0.93057598     17.561997      25.95137     
    422000   1.057358       17.886982      25.589255    
    423000   0.98193325     18.028083      25.410775    
    424000   1.0021152      17.931521      25.170717    
    425000   0.99716651     18.372602      25.242238    
    426000   0.97035516     17.702549      25.480344    
    427000   1.0196404      17.806325      25.578664    
    428000   1.0056595      18.801133      25.288132    
    429000   0.97007589     18.189973      25.28043     
    430000   1.0310439      18.321614      25.360259    
    431000   1.0123467      18.107787      25.083989    
    432000   1.0271204      18.067778      24.748784    
    433000   1.02599        17.672855      24.991324    
    434000   0.99842353     18.022475      24.81221     
    435000   1.0410963      17.600838      24.621762    
    436000   1.0001777      17.635827      24.474207    
    437000   1.0272445      18.219263      24.642839    
    438000   0.99697093     18.095277      24.406888    
    439000   1.015893       18.23641       24.14876     
    440000   0.95836878     17.931712      23.847973    
    441000   0.96666336     17.507704      23.830066    
    442000   0.96470393     17.792357      23.67181     
    443000   0.96728684     17.982649      23.764946    
    444000   1.023751       17.532618      23.48135     
    445000   0.95909931     17.845562      23.168665    
    446000   0.9799838      18.106524      23.168107    
    447000   1.0218503      18.057189      22.980003    
    448000   1.0307617      17.963873      22.908062    
    449000   1.0418701      18.073396      22.535074    
    450000   0.96925862     17.456935      22.63639     
    451000   1.063564       16.878316      22.669638    
    452000   1.0564936      17.924921      22.574858    
    453000   1.0127892      17.666385      22.49434     
    454000   1.0874397      17.455242      22.151381    
    455000   1.04137        18.210192      21.761069    
    456000   0.98878619     17.530728      21.68245     
    457000   1.0084766      17.870072      21.78857     
    458000   1.0001076      17.587544      21.266263    
    459000   0.98789881     17.39924       21.023957    
    460000   0.98376088     18.064048      20.912696    
    461000   0.98351986     18.214454      20.540256    
    462000   1.0270909      17.825278      20.633238    
    463000   0.98890078     17.683909      20.48781     
    464000   1.0193513      17.5588        20.361337    
    465000   1.0404259      17.402486      20.406846    
    466000   0.93457151     17.949615      20.379491    
    467000   1.0206581      18.447472      20.203986    
    468000   1.0312567      17.511606      19.716417    
    469000   1.038019       17.726838      19.608766    
    470000   1.0381349      17.758034      19.578205    
    471000   0.97361821     17.73091       19.603513    
    472000   0.95960592     17.931766      19.519511    
    473000   0.95185149     18.035414      19.247639    
    474000   0.96388305     17.392309      19.31606     
    475000   1.0565328      17.900762      19.208516    
    476000   0.99196937     17.448664      18.942691    
    477000   1.0112009      17.479784      18.855884    
    478000   1.0307589      17.962452      18.678561    
    479000   1.01666        17.481089      18.624214    
    480000   0.9921939      17.965961      18.359694    
    481000   0.97870916     18.186651      18.305092    
    482000   0.99195823     17.20904       17.969033    
    483000   1.0160042      17.959         17.924174    
    484000   0.98829036     18.013842      17.71393     
    485000   1.0051909      17.521243      17.443548    
    486000   1.0449862      17.851279      17.307406    
    487000   1.0040054      17.940484      17.053922    
    488000   1.0424628      17.771617      16.724785    
    489000   1.0552909      18.799744      16.663713    
    490000   1.0383624      18.073928      16.784866    
    491000   0.97799391     17.304064      16.713463    
    492000   0.9777327      17.259816      16.761336    
    493000   1.0349976      17.097773      16.717442    
    494000   1.0270752      18.084906      16.508693    
    495000   0.97118655     17.825039      16.391402    
    496000   1.0435241      18.027026      16.169861    
    497000   0.9635521      17.723773      16.042787    
    498000   1.0419301      18.564399      15.883568    
    499000   0.99409078     16.837796      15.611264    
    500000   0.96798875     17.513289      15.662806    
    501000   1.0037145      17.665042      15.40994     
    502000   1.0239557      17.842119      15.596232    
    503000   1.0123399      17.787577      15.198542    
    504000   1.0433946      17.67728       15.148149    
    505000   1.0053272      18.107709      15.097964    
    506000   1.0428894      16.823293      15.063157    
    507000   0.97499117     17.837253      14.938512    
    508000   0.95551627     17.49225       14.570114    
    509000   1.0017956      17.187679      14.317525    
    510000   1.0505655      17.417838      13.863897    
    511000   1.0248213      18.462296      13.568457    
    512000   0.99105242     17.885201      13.498899    
    513000   0.97146771     17.105754      13.546352    
    514000   1.0084029      17.516302      13.544743    
    515000   0.96461121     18.031258      13.53237     
    516000   0.97342406     18.02585       13.577778    
    517000   1.0309785      17.170103      13.340271    
    518000   1.0150477      18.635221      13.072257    
    519000   0.98727081     17.484638      12.709984    
    520000   0.98690217     17.650389      12.68432     
    521000   0.95272045     17.930675      12.732404    
    522000   0.97057446     17.268937      12.582384    
    523000   1.0184059      17.695049      12.246636    
    524000   0.98916242     17.896988      12.107418    
    525000   0.99496998     17.143763      11.897256    
    526000   0.9993219      17.210054      12.027155    
    527000   1.0049859      17.637796      11.841178    
    528000   1.0640248      17.756566      11.930506    
    529000   1.002779       17.06042       11.990278    
    530000   0.97316612     17.106269      11.765662    
    531000   1.0108422      17.704395      11.258886    
    532000   0.99302362     17.259608      10.979041    
    533000   1.0093633      18.265097      10.915659    
    534000   0.94028186     17.691969      10.730303    
    535000   1.1019096      17.65975       10.877478    
    536000   0.97707676     17.764479      10.878052    
    537000   0.9307597      17.544088      11.055137    
    538000   1.005921       17.284317      11.031363    
    539000   0.97420806     17.291633      10.721166    
    540000   0.94917905     16.677986      10.625458    
    541000   0.94303126     16.671066      10.508065    
    542000   1.008623       17.19679       10.589348    
    543000   0.98819091     17.049513      10.203238    
    544000   0.97592689     16.902817      10.180759    
    545000   1.0240535      18.307928      9.8860032    
    546000   0.98562096     16.398024      10.124421    
    547000   0.97283502     17.012601      10.064902    
    548000   0.94386221     17.402913      10.131157    
    549000   0.93405574     18.073571      10.115735    
    550000   1.0186979      17.629801      10.159971    
    551000   0.96197584     16.64176       9.9537725    
    552000   1.0046174      17.789989      9.7656012    
    553000   1.0644559      17.099445      9.8128359    
    554000   1.0073442      17.113313      9.945825     
    555000   1.0168529      16.934803      9.7449471    
    556000   1.003061       17.379831      9.5567835    
    557000   0.99478916     17.453722      9.5792609    
    558000   1.0454643      16.941032      9.5385219    
    559000   0.94614545     17.727624      9.4662041    
    560000   1.0480711      16.68448       9.4361098    
    561000   0.96331078     16.935354      9.1546491    
    562000   0.95359606     17.268601      8.8958899    
    563000   1.0353465      17.40653       8.8003711    
    564000   0.97815572     17.487122      9.0296487    
    565000   0.97849466     17.621256      9.1145102    
    566000   0.93333612     17.429644      9.0500183    
    567000   1.0350391      17.642996      8.8492899    
    568000   1.0093548      17.785917      8.7347286    
    569000   0.93612518     16.9839        8.4813508    
    570000   1.0115652      17.04064       8.4775342    
    571000   0.9759602      17.04922       8.465229     
    572000   0.9917034      18.007171      8.3777232    
    573000   0.91839637     17.777647      8.296434     
    574000   1.0115899      17.045751      8.2552261    
    575000   0.97754446     17.638659      8.0927533    
    576000   1.0035777      17.882006      7.9812369    
    577000   1.0060462      17.050783      8.0738865    
    578000   1.028953       17.04161       7.8797978    
    579000   0.98633918     17.152004      7.5226268    
    580000   1.0317683      17.379514      7.2181171    
    581000   0.9984488      17.014468      7.0271977    
Fix halt condition for fix-id 3 met on step 582000 with value 6.917641043377518 (src/fix_halt.cpp:237)
    582000   1.0241714      17.561219      6.917641     
Loop time of 575.143 on 2 procs for 482000 steps with 601 atoms

Performance: 724077.727 tau/day, 838.053 timesteps/s
111.5% CPU use with 1 MPI tasks x 2 OpenMP threads

MPI task timing breakdown:
Section |  min time  |  avg time  |  max time  |%varavg| %total
---------------------------------------------------------------
Pair    | 79.844     | 79.844     | 79.844     |   0.0 | 13.88
Bond    | 8.7608     | 8.7608     | 8.7608     |   0.0 |  1.52
Neigh   | 462.51     | 462.51     | 462.51     |   0.0 | 80.42
Comm    | 0.16236    | 0.16236    | 0.16236    |   0.0 |  0.03
Output  | 1.4619     | 1.4619     | 1.4619     |   0.0 |  0.25
Modify  | 21.101     | 21.101     | 21.101     |   0.0 |  3.67
Other   |            | 1.298      |            |       |  0.23

Nlocal:            601 ave         601 max         601 min
Histogram: 1 0 0 0 0 0 0 0 0 0
Nghost:              0 ave           0 max           0 min
Histogram: 1 0 0 0 0 0 0 0 0 0
Neighs:          89441 ave       89441 max       89441 min
Histogram: 1 0 0 0 0 0 0 0 0 0

Total # of neighbors = 89441
Ave neighs/atom = 148.8203
Ave special neighs/atom = 1.9966722
Neighbor list builds = 4356
Dangerous builds = 0

# This simulation is done
# Move onto the next one
clear
  using 2 OpenMP thread(s) per MPI task
package omp 0
using multi-threaded neighbor list subroutines
next f
jump SELF

###
# Reference paper:
# K. Kremer and G. S. Grest
# Dynamics of entangled linear polymer melts: A molecular-dynamics simulation
# J Chem Phys 92, 5057 (1990)

##################################
# MIHIR: for branched polymers
# LJ minimum first to expand and explore, then collapse
###

###
# Looping through the various N1B3 polymers to simulate,
# define variables to switch through
#variable f index bb66nuc1bl33bn3d30tot100 bb133nuc1bl66bn3d30tot200 bb200nuc1bl100bn3d30tot300 bb266nuc1bl133bn3d30tot400 bb333nuc1bl166bn3d30tot500 bb400nuc1bl200bn3d30tot600 bb466nuc1bl233bn3d30tot700 bb533nuc1bl266bn3d30tot800 bb600nuc1bl300bn3d30tot900 bb666nuc1bl333bn3d30tot1000 bb733nuc1bl366bn3d30tot1100 bb800nuc1bl400bn3d30tot1200
# variable f index bb66nuc1bl33bn3d30tot100V3 bb133nuc1bl66bn3d30tot200V3 bb200nuc1bl100bn3d30tot300V3 bb266nuc1bl133bn3d30tot400V3 bb333nuc1bl166bn3d30tot500V3 bb400nuc1bl200bn3d30tot600V3 bb466nuc1bl233bn3d30tot700V3 bb533nuc1bl266bn3d30tot800V3 bb600nuc1bl300bn3d30tot900V3 bb666nuc1bl333bn3d30tot1000V3 bb733nuc1bl366bn3d30tot1100V3 bb800nuc1bl400bn3d30tot1200V3
variable f index bb66nuc1bl33bn3d30tot100V2 bb133nuc1bl66bn3d30tot200V2 bb200nuc1bl100bn3d30tot300V2 bb266nuc1bl133bn3d30tot400V2 bb333nuc1bl166bn3d30tot500V2 bb400nuc1bl200bn3d30tot600V2 bb466nuc1bl233bn3d30tot700V2 bb533nuc1bl266bn3d30tot800V2 bb600nuc1bl300bn3d30tot900V2 bb666nuc1bl333bn3d30tot1000V2 bb733nuc1bl366bn3d30tot1100V2 bb800nuc1bl400bn3d30tot1200V2
#variable f index bb733nuc1bl366bn3d30tot1100V2 bb800nuc1bl400bn3d30tot1200V2
###


###
# Box and units  (use LJ units and periodic boundaries)
###

units lj
log N1B3/trial2/logs3/$f.log
log N1B3/trial2/logs3/bb466nuc1bl233bn3d30tot700V2.log
