#atom_style bond #no stiffness
atom_style angle #with stiffness

boundary        p p p
###
# Pair interactions require lists of neighbours to be calculated
###

#neighbor 0.3 bin
neighbor 4 bin

neigh_modify every 1 delay 1 check yes
atom_modify sort 0 0
### Generate RESTART file, SPECIAL format, not a .txt file ###
### Useful if simulation crashes ###

restart 1000000 N1B3/trial2/restarts3/$f.restart
restart 1000000 N1B3/trial2/restarts3/bb533nuc1bl266bn3d30tot800V2.restart
#############################



### READ "start" data file ###

read_data N1B3/trial2/dats2/$f.dat
read_data N1B3/trial2/dats2/bb533nuc1bl266bn3d30tot800V2.dat
Reading data file ...
  orthogonal box = (-1000 -1000 -1000) to (1000 1000 1000)
  1 by 1 by 1 MPI processor grid
  reading atoms ...
  799 atoms
  scanning bonds ...
  2 = max bonds/atom
  scanning angles ...
  3 = max angles/atom
  reading bonds ...
  798 bonds
  reading angles ...
  798 angles
Finding 1-2 1-3 1-4 neighbors ...
  special bond factors lj:    0        0        0       
  special bond factors coul:  0        0        0       
     3 = max # of 1-2 neighbors
     3 = max # of 1-3 neighbors
     6 = max # of 1-4 neighbors
     9 = max # of special neighbors
  special bonds CPU = 0.003 seconds
  read_data CPU = 0.194 seconds

######################

### READ "REstart" data file ###

######################



###
# Define groups (atom type 1 is group 'all')
###
group all type 1
799 atoms in group all


###
# Dump configs - "simple dumpings"
###

###
# Dump configs + box coords
###

dump   1   all   custom   1000  N1B3/trial2/trjs3/$f.lammpstrj  id  x y z  ix iy iz
dump   1   all   custom   1000  N1B3/trial2/trjs3/bb533nuc1bl266bn3d30tot800V2.lammpstrj  id  x y z  ix iy iz
dump_modify   1   format line "%d %.5f %.5f %.5f %d %d %d"

########################################################################


###################################################################
# Stiffness term
#
# E = K * (1+cos(theta)), K>0
#
angle_style   cosine
#change this coefficient to change stiffness (e.g. 1,5,10)
angle_coeff   1 1.0
###################################################################

###################################################################
# Pair interaction between non-bonded atoms
#
#  Lennard-Jones 12-6 potential with cutoff:
#  potential E=4epsilon[ (sigma/r)^12 - (sigma/r)^6]  for r<r_cut
#
#  1.12246 = 2^(1/6) is the minimum of the potential


pair_style      lj/cut 1.12246152962189
#pair_style      lj/cut 3

#
#  pair_modify shift yes adds a constant to the potential such

#  that E(r_cut)=0. Forces remains unchanged.
#

pair_modify     shift yes

#
#  pair_coeff for lj/cut, specify 4:
#    * atom type interacting with
#    * atom type
#    * epsilon (energy units)
#    * sigma (distance units)
#

pair_coeff      1 1 1.0 1.0
###################################################################

###################################################################
# Pair interaction between non-bonded atoms
#
#  soft potential, for PUSHING apart overlapping atoms
#  potential E=A*(1 + cos(pi*r/r_c))
#
#  1.12246 = 2^(1/6) is the cut-off r_c

#pair_style     soft 1.12246152962189

#
#  pair_coeff for soft, specify 3:
#    * atom type interacting with
#    * atom type
#    * A
#
#

#pair_coeff      1 1 100.0
###################################################################

###################################################################
# Pair interaction between bonded atoms
#
# Fene potential + Lennard Jones 12-6:

#
#  E= - 0.5 K R0^2 ln[ 1- (r/R0)^2]
#     + 4epsilon[ (sigma/r)^12 - (sigma/r)^6] + epsilon
#

bond_style   fene


#
# For style fene, specify:
#   * bond type
#   * K (energy/distance^2)
#   * R0 (distance)
#   * epsilon (energy)  (LJ component)
#   * sigma (distance)  (LJ component)
#


special_bonds fene #<=== I M P O R T A N T (new command)
Finding 1-2 1-3 1-4 neighbors ...
  special bond factors lj:    0        1        1       
  special bond factors coul:  0        1        1       
     3 = max # of 1-2 neighbors
     9 = max # of special neighbors
  special bonds CPU = 0.001 seconds

bond_coeff   1   30   2   1.0   1.0


###################################################

###################################################################
# Pair interaction between bonded atoms
#
# Harmonic potential:
#
#  E= K * (R-R0)^2
#

#bond_style   harmonic

#
# For style harmonic, specify:
#   * bond type
#   * K (energy/distance^2)
#   * R0 (distance)
#

#bond_coeff   1   60.0   1.0
#bond_coeff   2   harmonic 0.1   1.0

###################################################
compute 1 all gyration
variable rog equal c_1
#compute 2 all coord/atom cutoff 1.1

#dump 2 all custom 10000 contact_number.dump id c_2


###
# Set up fixes
###
thermo_style   custom   step  temp enthalpy c_1
fix 1 all nve   ###NVE ensemble

fix 2 all   langevin   1.0 1.0 1.0  778655   ###Langevin integrator Tstart Tstop 1/friction rndseed


##### Sample thermodynamic info  (temperature, energy, pressure, etc.) #####
thermo 1000









############################################################################

###
# set timestep of integrator

timestep 0.01

###
# run integration for a number of steps
###
#run 0
#variable r equal c_1
#if "$r < 63.1" then "quit 1"

# lj potential minimum, cause molecule to explore
run 100000
Generated 0 of 0 mixed pair_coeff terms from geometric mixing rule
Last active /omp style is angle_style cosine/omp
Neighbor list info ...
  update: every = 1 steps, delay = 1 steps, check = yes
  max neighbors/atom: 2000, page size: 100000
  master list distance cutoff = 5.1224615
  ghost atom cutoff = 5.1224615
  binsize = 2.5612308, bins = 781 781 781
  1 neighbor lists, perpetual/occasional/extra = 1 0 0
  (1) pair lj/cut/omp, perpetual
      attributes: half, newton on, omp
      pair build: half/bin/newton/omp
      stencil: half/bin/3d
      bin: standard
WARNING: Communication cutoff 5.12246152962189 is shorter than a bond length based estimate of 5.455. This may lead to errors. (src/comm.cpp:723)
Per MPI rank memory allocation (min/avg/max) = 1860 | 1860 | 1860 Mbytes
   Step          Temp         Enthalpy         c_1      
         0   0              13.16411       142.48802    
      1000   0.96070019     17.003833      142.02791    
      2000   1.0090477      17.197093      141.26375    
      3000   1.0524053      17.521273      140.68068    
      4000   0.94658574     17.185317      140.13105    
      5000   1.0153189      18.034312      139.46315    
      6000   0.98039177     18.42592       138.86823    
      7000   1.0121486      18.040857      138.14745    
      8000   0.93492879     17.559412      137.46529    
      9000   1.0107324      18.303975      137.04879    
     10000   1.0065488      18.349454      136.65944    
     11000   0.98857665     18.099651      136.11175    
     12000   1.0306574      18.21054       135.8109     
     13000   0.97099882     18.53764       135.19745    
     14000   0.98233604     18.760871      134.84198    
     15000   1.0255356      19.189312      134.45529    
     16000   1.0404318      18.868535      134.04927    
     17000   1.0260617      18.353382      133.78485    
     18000   1.0258578      19.102888      133.30607    
     19000   0.95629276     19.235624      132.78241    
     20000   1.0328765      19.146593      132.22278    
     21000   1.0087036      18.958961      132.02577    
     22000   1.0642724      19.103069      131.45794    
     23000   1.0854498      18.708729      131.25862    
     24000   0.9417949      18.727497      130.9518     
     25000   0.98943184     18.878697      130.58387    
     26000   1.0185557      19.860068      130.5866     
     27000   0.98449897     18.524145      130.50236    
     28000   0.96961596     19.14049       129.96007    
     29000   0.99372844     19.467638      129.39374    
     30000   0.97893356     19.234337      129.16889    
     31000   0.98328316     19.187319      128.89604    
     32000   1.0329553      19.299848      128.77008    
     33000   1.0297123      19.553821      128.40178    
     34000   1.0151818      19.089244      128.13248    
     35000   0.97644818     19.239046      127.76197    
     36000   0.95737495     18.78798       127.24476    
     37000   1.0778625      19.690529      127.14772    
     38000   0.97044768     19.509003      127.19423    
     39000   1.0205386      19.510081      126.86474    
     40000   0.97725765     19.207229      126.7542     
     41000   1.021357       19.450054      126.69729    
     42000   1.0302555      19.227407      126.51305    
     43000   1.0125097      19.433909      126.46509    
     44000   1.0068543      19.545989      126.23983    
     45000   0.9454176      19.170285      125.70063    
     46000   1.0290037      19.372907      125.27925    
     47000   1.0401623      19.822496      124.59857    
     48000   0.96005418     19.490124      124.27318    
     49000   0.99365842     19.693009      123.94671    
     50000   1.0243242      20.166527      123.6249     
     51000   1.0500281      19.858768      123.63033    
     52000   1.04729        19.159495      123.32667    
     53000   0.96090701     19.362652      123.11331    
     54000   1.002785       19.771503      123.07889    
     55000   0.95116728     19.483545      123.04131    
     56000   1.0016438      19.500033      122.87201    
     57000   1.0072417      19.339062      122.49842    
     58000   1.0139713      19.170924      122.17301    
     59000   0.99407746     19.611494      121.97225    
     60000   1.0113824      19.373643      121.62682    
     61000   1.0196762      19.728297      121.54813    
     62000   1.0331325      20.033104      121.27223    
     63000   1.0335065      19.756107      121.04621    
     64000   1.0308639      19.917522      120.88272    
     65000   1.0080238      19.154207      120.78717    
     66000   0.96629557     19.809036      120.57226    
     67000   0.97019941     20.179506      120.29976    
     68000   1.018936       19.449211      120.00671    
     69000   1.0055177      19.721667      119.98657    
     70000   1.0352681      20.001022      119.93664    
     71000   0.997482       19.911011      119.66262    
     72000   1.0083803      20.325564      119.54774    
     73000   0.98895146     19.634038      119.43527    
     74000   1.0463249      19.848243      119.30009    
     75000   1.0153548      19.592835      119.24657    
     76000   0.94860599     19.285072      119.02656    
     77000   1.0015696      19.608278      118.58636    
     78000   1.0238008      19.251273      118.5035     
     79000   1.0293865      19.237886      118.20189    
     80000   1.0215705      20.20288       117.98406    
     81000   1.0488831      19.59266       117.93438    
     82000   1.0087978      19.982093      117.90194    
     83000   1.0432494      19.897449      117.60371    
     84000   1.0030287      20.147         117.43389    
     85000   0.98672693     19.961304      117.20277    
     86000   0.99501451     19.925075      117.04471    
     87000   1.0642221      19.941277      116.74717    
     88000   0.9842127      19.782129      116.5662     
     89000   1.0158641      20.535495      116.46684    
     90000   1.0149961      20.373698      116.42338    
     91000   0.98315857     19.88945       116.29376    
     92000   0.99885825     19.250172      116.20889    
     93000   1.0101446      19.255157      116.03311    
     94000   1.016336       19.945936      115.81696    
     95000   1.0474512      19.809463      115.46485    
     96000   1.0422261      19.998877      115.08642    
     97000   0.9637281      19.983797      115.11796    
     98000   1.0010989      20.290861      114.94807    
     99000   1.0479596      20.337609      114.85828    
    100000   0.99448975     19.945791      114.41105    
Loop time of 319.978 on 2 procs for 100000 steps with 799 atoms

Performance: 270018.911 tau/day, 312.522 timesteps/s
95.3% CPU use with 1 MPI tasks x 2 OpenMP threads

MPI task timing breakdown:
Section |  min time  |  avg time  |  max time  |%varavg| %total
---------------------------------------------------------------
Pair    | 1.0363     | 1.0363     | 1.0363     |   0.0 |  0.32
Bond    | 2.2376     | 2.2376     | 2.2376     |   0.0 |  0.70
Neigh   | 310.84     | 310.84     | 310.84     |   0.0 | 97.14
Comm    | 0.033711   | 0.033711   | 0.033711   |   0.0 |  0.01
Output  | 0.43145    | 0.43145    | 0.43145    |   0.0 |  0.13
Modify  | 5.071      | 5.071      | 5.071      |   0.0 |  1.58
Other   |            | 0.3312     |            |       |  0.10

Nlocal:            799 ave         799 max         799 min
Histogram: 1 0 0 0 0 0 0 0 0 0
Nghost:              0 ave           0 max           0 min
Histogram: 1 0 0 0 0 0 0 0 0 0
Neighs:           4465 ave        4465 max        4465 min
Histogram: 1 0 0 0 0 0 0 0 0 0

Total # of neighbors = 4465
Ave neighs/atom = 5.5882353
Ave special neighs/atom = 1.9974969
Neighbor list builds = 1051
Dangerous builds = 0

# Replace lj potential, now collapse
pair_style      lj/cut 3

# Cutoff simul when gyration under 7
# Variable created with equal requires v_ + 'name'
fix 3 all halt 1000 v_rog < 7

run 5000000
Generated 0 of 0 mixed pair_coeff terms from geometric mixing rule
Last active /omp style is angle_style cosine/omp
Per MPI rank memory allocation (min/avg/max) = 1860 | 1860 | 1860 Mbytes
   Step          Temp         Enthalpy         c_1      
    100000   0.99448975     19.385634      114.41105    
    101000   0.93658127     18.996981      114.2861     
    102000   0.98443408     19.582633      114.18526    
    103000   0.9831611      19.31801       114.06053    
    104000   1.0673746      18.998117      113.82687    
    105000   0.9624612      19.282443      113.75188    
    106000   0.99855549     19.263824      113.56354    
    107000   1.025061       19.72193       113.29208    
    108000   0.99801424     19.0748        112.96524    
    109000   0.98724168     19.956822      112.61317    
    110000   0.96110394     18.947239      112.41366    
    111000   0.95211224     19.086525      112.16621    
    112000   1.023928       19.362455      112.08662    
    113000   0.97150016     19.101681      111.89044    
    114000   1.0101787      19.432728      111.57612    
    115000   1.0391667      19.358372      111.35906    
    116000   1.0038673      19.121119      111.24041    
    117000   0.98634362     18.849047      111.06398    
    118000   0.96985035     18.95072       110.81176    
    119000   0.93570988     19.333228      110.84999    
    120000   0.97028018     18.727122      110.58893    
    121000   1.0374287      19.627839      110.59112    
    122000   1.0273949      18.833685      110.38652    
    123000   1.0079075      19.391585      110.37248    
    124000   1.01554        19.161671      110.03564    
    125000   0.98487533     19.84719       109.83345    
    126000   1.0089657      19.521561      109.44114    
    127000   0.99674411     19.165948      109.25404    
    128000   1.0040077      19.287265      109.20586    
    129000   1.0434949      18.915551      109.1185     
    130000   0.99725055     19.130895      109.03037    
    131000   0.97644418     19.018802      108.87811    
    132000   0.95976467     18.962429      108.63122    
    133000   1.0083549      19.299533      108.31228    
    134000   0.98237418     19.352703      108.16339    
    135000   1.0264798      19.063377      108.12256    
    136000   1.004623       18.657209      107.80223    
    137000   1.0731801      19.741049      107.72473    
    138000   1.1157078      19.363093      107.31789    
    139000   1.0116334      19.129777      107.17579    
    140000   1.0113449      19.243539      106.82759    
    141000   0.96141131     19.021611      106.57169    
    142000   1.0377892      19.285911      106.39259    
    143000   1.0079909      19.149963      106.28757    
    144000   1.0030964      18.784388      106.1974     
    145000   1.0654031      19.161768      105.94424    
    146000   1.0197299      18.884767      105.58919    
    147000   0.97835605     18.847146      105.709      
    148000   0.97433195     19.196101      105.71728    
    149000   1.0133864      19.546427      105.71596    
    150000   0.97781997     19.410673      105.53815    
    151000   0.95337901     19.225833      105.63789    
    152000   1.0065535      19.25125       105.14532    
    153000   1.01001        19.412952      104.71586    
    154000   0.95828056     19.266206      104.5051     
    155000   0.95043285     18.910761      104.51744    
    156000   0.96293958     19.446791      104.41362    
    157000   1.0282337      20.045825      104.36835    
    158000   0.97576706     19.282493      104.41985    
    159000   0.96537619     19.307361      104.23235    
    160000   0.98480933     18.399199      104.15539    
    161000   1.0244595      18.770159      103.89561    
    162000   0.99251363     19.423828      103.76049    
    163000   1.0436539      19.787138      103.69102    
    164000   1.0089356      19.492457      103.75943    
    165000   0.98465284     19.064586      103.61394    
    166000   0.99802311     19.253741      103.57502    
    167000   1.0229091      19.448842      103.42407    
    168000   1.0054066      18.898277      103.23677    
    169000   1.0032593      18.962858      103.01298    
    170000   1.0045215      19.546933      102.73635    
    171000   0.98470646     19.558416      102.57411    
    172000   0.98125142     19.018799      102.25548    
    173000   1.0102905      19.093938      101.86985    
    174000   1.0121528      19.128031      101.67096    
    175000   0.99000391     19.007951      101.50468    
    176000   0.99135181     18.871146      101.23331    
    177000   0.94821553     18.589577      100.9939     
    178000   0.98244587     18.706982      100.62756    
    179000   1.0643872      19.277773      100.43571    
    180000   0.99227738     18.763144      100.31398    
    181000   1.0111101      19.110418      100.06052    
    182000   1.0328987      19.542231      100.12886    
    183000   1.0020178      18.380144      100.2743     
    184000   1.0254518      19.250162      100.15282    
    185000   0.91463389     18.971844      100.13991    
    186000   0.98783658     18.70937       100.0468     
    187000   0.96477192     18.83337       99.699286    
    188000   1.0018591      18.767322      99.559677    
    189000   0.98132708     18.499035      99.809017    
    190000   0.99557946     18.843246      99.818067    
    191000   0.99685362     18.834213      99.532235    
    192000   1.0019775      18.35008       99.223769    
    193000   1.0513751      18.796247      99.008483    
    194000   0.94793353     17.956298      98.796147    
    195000   0.99906598     19.031715      98.431913    
    196000   0.9592688      19.053321      98.296958    
    197000   1.0390709      19.267824      98.074286    
    198000   0.99938839     18.566412      97.780289    
    199000   0.98444068     18.620584      97.475699    
    200000   1.022559       18.705565      97.216457    
    201000   1.0102828      19.203728      96.915499    
    202000   1.0178232      19.158388      96.721583    
    203000   1.0450772      19.094957      96.79501     
    204000   0.96872945     18.985859      96.406793    
    205000   0.99717817     18.943617      96.303174    
    206000   0.98595858     18.981954      96.019778    
    207000   0.99846366     19.176112      96.000765    
    208000   0.97345868     19.293002      95.759821    
    209000   0.97314183     19.529669      95.742434    
    210000   0.98614603     19.147214      95.581761    
    211000   0.97740591     18.75527       95.283903    
    212000   1.0323908      19.383441      95.073089    
    213000   0.99365444     18.716728      94.887237    
    214000   0.99379764     18.510196      94.877657    
    215000   1.0006702      18.655559      94.554984    
    216000   0.98003694     19.113583      93.876088    
    217000   1.0433406      18.942754      93.56249     
    218000   1.0000797      18.88285       93.52792     
    219000   0.98348622     18.706547      93.374225    
    220000   0.98714887     19.210596      93.345313    
    221000   0.97802317     18.534251      93.412894    
    222000   1.0783876      19.538522      93.510707    
    223000   0.9617834      18.776606      93.342146    
    224000   0.98559463     19.076453      93.235176    
    225000   1.0368739      19.031998      92.805805    
    226000   0.99506389     18.553991      92.744593    
    227000   0.93910416     18.554989      92.632002    
    228000   1.0193798      19.571895      92.537841    
    229000   0.94522333     18.166632      92.44987     
    230000   1.0044069      19.190057      92.184817    
    231000   1.0115703      18.698034      92.260985    
    232000   1.0023949      19.249666      92.119358    
    233000   1.0171854      19.179571      92.043547    
    234000   0.98563858     18.817617      92.204137    
    235000   1.025955       18.88828       92.017153    
    236000   0.96011039     18.428348      91.664301    
    237000   1.0628365      18.717671      91.581731    
    238000   0.99761438     19.211539      91.603669    
    239000   0.97842813     19.073494      91.295473    
    240000   1.0275657      18.257137      91.224647    
    241000   1.0219349      19.428151      91.197554    
    242000   0.98722961     19.035243      91.019715    
    243000   1.0096198      18.433634      91.059919    
    244000   1.0619597      19.353167      90.94314     
    245000   0.97529048     19.140711      90.526073    
    246000   1.095843       18.797738      90.415134    
    247000   1.008667       19.210489      90.204093    
    248000   1.0152652      18.375157      90.157833    
    249000   0.97093303     18.635206      90.194283    
    250000   1.0225279      18.562683      89.99997     
    251000   1.0020233      19.180189      89.801597    
    252000   0.97256598     19.169572      89.776314    
    253000   1.0086034      18.561693      89.787762    
    254000   1.0131333      17.958305      89.704993    
    255000   1.0406665      18.920423      89.52457     
    256000   0.9652398      19.088667      89.446421    
    257000   1.0018172      18.917249      89.456082    
    258000   1.0643509      19.224373      89.442619    
    259000   0.96599444     18.96529       89.403299    
    260000   0.99090888     18.669009      89.306417    
    261000   1.043067       18.912838      89.19208     
    262000   1.007388       18.721027      89.12221     
    263000   1.0423423      19.310283      88.773532    
    264000   0.97268203     18.775632      88.560307    
    265000   1.0353399      18.414781      88.28687     
    266000   1.0040511      19.045002      88.25332     
    267000   0.99724479     18.843782      88.222128    
    268000   1.006266       19.033288      87.94813     
    269000   1.0068416      19.188099      87.97922     
    270000   0.99621548     18.529667      88.071356    
    271000   1.0215575      18.896375      87.874309    
    272000   0.97308121     18.803435      87.625906    
    273000   0.9841522      19.199986      87.451785    
    274000   0.99676102     18.808441      87.180397    
    275000   1.0145141      18.462057      86.766216    
    276000   0.99310968     18.536306      86.700284    
    277000   1.0108093      19.529302      86.666977    
    278000   1.0034319      18.80273       86.718281    
    279000   1.0085751      19.084951      86.492642    
    280000   0.98201951     18.676366      86.24021     
    281000   0.95483627     18.539071      85.853604    
    282000   1.0052499      18.809822      85.729709    
    283000   0.98057597     18.924528      85.711968    
    284000   0.96193425     18.687029      85.621151    
    285000   1.0072138      18.633032      85.360492    
    286000   0.97025963     18.752454      85.151763    
    287000   0.98777447     19.364864      85.226746    
    288000   1.0276435      19.23089       85.162152    
    289000   0.96684064     18.671579      84.836576    
    290000   1.0709107      19.071242      84.537716    
    291000   0.95642787     19.543176      84.651379    
    292000   0.9582742      18.460255      84.594697    
    293000   0.99299719     18.83333       84.37773     
    294000   1.0182324      18.838754      84.368107    
    295000   0.96020183     18.557202      83.999055    
    296000   1.0353505      18.488059      83.975696    
    297000   1.0045992      18.745065      83.685567    
    298000   1.0046334      18.748603      83.580995    
    299000   0.99816334     18.889335      83.64135     
    300000   1.0424629      19.021582      83.324392    
    301000   1.0708682      19.721287      83.155248    
    302000   0.99632143     18.797267      82.981241    
    303000   0.9952854      18.813286      82.809979    
    304000   1.0105223      18.410549      82.722064    
    305000   1.0264436      19.098724      82.538576    
    306000   0.99496344     18.249143      82.357697    
    307000   1.0167877      19.117737      81.909105    
    308000   0.96418356     19.06551       81.590636    
    309000   1.0113056      19.12228       81.690922    
    310000   0.96794912     18.69964       81.714419    
    311000   1.0004975      18.263022      81.446321    
    312000   1.0156267      18.841336      81.537807    
    313000   1.0155086      19.385663      81.4641      
    314000   1.0259869      18.357624      81.516403    
    315000   1.0386986      19.008193      81.416532    
    316000   1.0051413      18.302675      81.12594     
    317000   1.0322243      19.182883      81.116326    
    318000   1.0280599      18.691355      81.264319    
    319000   0.98043052     18.184793      81.266757    
    320000   0.98762409     17.869818      81.153691    
    321000   0.99915144     18.347681      80.961969    
    322000   0.9526359      18.93526       80.643727    
    323000   0.9944322      18.813873      80.713675    
    324000   0.97419495     18.43171       80.644318    
    325000   0.97520227     18.771307      80.571703    
    326000   1.007169       18.834403      80.486358    
    327000   0.99780975     18.772363      80.439854    
    328000   1.0168492      19.535112      80.236687    
    329000   0.99245077     17.896945      80.051732    
    330000   1.0019035      18.610127      79.926988    
    331000   0.96947693     18.506056      79.702389    
    332000   1.0327243      19.02709       79.502992    
    333000   1.0217894      18.270762      79.29302     
    334000   1.0396624      18.983793      79.214444    
    335000   0.99922188     19.079554      78.790849    
    336000   0.99701929     18.680175      78.704347    
    337000   1.0122222      18.318454      78.729252    
    338000   1.0213         18.570004      78.576162    
    339000   0.99663341     18.526159      78.499416    
    340000   0.99045015     18.585383      78.359518    
    341000   0.96317815     18.107925      78.120392    
    342000   0.98962018     18.693144      77.762278    
    343000   1.0116571      18.385335      77.787138    
    344000   1.0142534      18.952396      77.590428    
    345000   0.98627479     19.468064      77.472022    
    346000   0.96121198     18.675612      77.369903    
    347000   0.96802495     18.754362      77.167093    
    348000   1.0225868      18.902252      76.846764    
    349000   1.0149865      19.091336      76.624965    
    350000   1.0007997      18.745128      76.187583    
    351000   0.99516872     18.779766      75.872805    
    352000   0.98034563     18.63181       75.530104    
    353000   1.0148968      18.696991      75.172213    
    354000   0.96750008     19.124628      75.071742    
    355000   0.97731344     17.369538      74.823844    
    356000   1.0225999      18.625565      74.741114    
    357000   0.97518191     18.614333      74.465277    
    358000   0.97421387     18.467487      74.216498    
    359000   1.0213219      18.639494      74.090003    
    360000   0.99820042     18.539368      73.703046    
    361000   0.97910571     17.981444      73.615689    
    362000   0.99983323     17.990571      73.656156    
    363000   1.0093521      18.22328       73.846783    
    364000   1.0068707      18.422951      73.711009    
    365000   1.0227713      18.811655      73.439962    
    366000   0.98674837     18.091384      73.338881    
    367000   1.0036122      18.849025      73.189397    
    368000   1.0151289      18.251156      73.048211    
    369000   1.0570767      18.780493      73.094591    
    370000   0.97716162     18.573512      72.959271    
    371000   0.98634345     18.873397      72.836557    
    372000   0.99753838     19.057993      72.991442    
    373000   1.0371118      19.14817       72.75403     
    374000   1.0353139      18.568092      72.829771    
    375000   0.95740162     18.514835      72.744291    
    376000   0.94120323     18.950474      72.61311     
    377000   1.0037572      18.080578      72.379661    
    378000   1.0184351      18.690268      72.427823    
    379000   0.99076838     18.453003      72.716417    
    380000   1.0368094      18.822834      72.342257    
    381000   0.97731639     18.120797      72.124599    
    382000   1.0035784      18.884245      72.130563    
    383000   0.99832488     18.64039       72.006187    
    384000   0.94765941     18.183272      71.582156    
    385000   1.0437904      18.861531      71.465159    
    386000   0.98625063     18.601417      71.339194    
    387000   0.96021825     17.843657      71.291504    
    388000   1.0457948      18.907276      71.216419    
    389000   1.023524       19.200559      71.163158    
    390000   0.97923305     18.275563      71.119987    
    391000   1.0167784      18.644877      71.16609     
    392000   1.0263291      18.985491      71.322617    
    393000   1.025508       18.626471      71.036538    
    394000   1.0058059      19.081869      70.832511    
    395000   0.9845391      18.492041      70.716513    
    396000   0.98135062     18.01013       70.834037    
    397000   0.98619985     18.379814      70.808436    
    398000   1.0387341      18.540644      70.737733    
    399000   1.0184443      18.53766       70.384541    
    400000   0.98745798     18.001328      70.229932    
    401000   0.96885554     18.504759      70.140581    
    402000   0.97184736     18.512845      69.853383    
    403000   1.0346591      18.02677       69.833043    
    404000   0.98511694     18.607086      69.638046    
    405000   0.9944786      18.159811      69.465816    
    406000   0.98219864     18.565676      69.413181    
    407000   0.98228627     18.400364      69.153237    
    408000   1.0005447      19.286503      68.770664    
    409000   0.99076337     17.675617      68.744587    
    410000   1.0126893      18.13784       68.723019    
    411000   1.0390583      18.475867      68.447511    
    412000   0.9731316      18.694385      68.379871    
    413000   0.96844273     18.669436      68.291684    
    414000   0.9820479      18.095435      68.288704    
    415000   0.96351112     18.653597      68.140221    
    416000   1.0043471      18.338387      68.271704    
    417000   1.0589204      19.216493      68.296665    
    418000   0.98764953     18.555596      68.137767    
    419000   0.99195704     17.693607      68.023552    
    420000   0.99656018     18.169334      67.886297    
    421000   1.0026674      17.839363      67.819821    
    422000   0.98272732     18.054221      67.877857    
    423000   1.0411538      18.437357      67.886107    
    424000   0.99906941     18.796306      67.669517    
    425000   0.98703998     18.479381      67.627919    
    426000   0.94049938     17.79402       67.485057    
    427000   0.98826884     18.557036      67.385543    
    428000   1.0189583      18.726571      67.202115    
    429000   0.97944585     18.658358      67.033336    
    430000   0.99298951     17.511651      66.826567    
    431000   1.0869         18.959109      66.70176     
    432000   1.0049861      18.057938      66.537599    
    433000   0.99861938     18.41183       66.462489    
    434000   1.0355779      18.550768      66.229217    
    435000   1.0241399      18.515852      66.178459    
    436000   0.96863608     18.10203       65.877618    
    437000   0.98337905     18.062034      65.726029    
    438000   1.0347766      18.792504      65.610558    
    439000   0.99280463     17.919718      65.621065    
    440000   1.0054728      18.091784      65.41872     
    441000   0.97258125     18.445087      65.246698    
    442000   1.032773       17.450241      65.283532    
    443000   1.0016907      17.574628      65.039568    
    444000   0.97388701     18.451004      64.607352    
    445000   1.0279503      18.61631       64.498625    
    446000   1.0063652      18.734631      64.365805    
    447000   0.94444438     18.331363      64.205533    
    448000   1.0320811      18.884669      64.331881    
    449000   0.99891979     17.916917      64.048108    
    450000   1.0142882      18.707734      63.934641    
    451000   1.0143806      18.294519      63.741663    
    452000   1.0220471      19.068684      63.636259    
    453000   1.0002591      18.218082      63.547328    
    454000   0.98465844     18.460404      63.360647    
    455000   1.0251821      18.257905      63.195631    
    456000   0.99870232     18.521732      63.210462    
    457000   1.0421638      18.292826      63.215271    
    458000   1.0453417      18.125825      63.237586    
    459000   1.0012487      18.692147      62.903519    
    460000   1.0244388      18.603025      62.748838    
    461000   0.98228415     18.612764      62.543084    
    462000   0.99348341     17.864412      62.322269    
    463000   1.006499       18.582978      61.974321    
    464000   0.97548188     18.058808      61.819801    
    465000   1.0480379      17.805772      61.673255    
    466000   0.94687523     18.18863       61.696506    
    467000   1.0590259      18.232327      61.743307    
    468000   1.0552175      18.315168      61.61044     
    469000   0.99260413     18.43284       61.559735    
    470000   0.98879395     17.857883      61.456056    
    471000   1.0042551      18.13157       61.231197    
    472000   1.0365681      17.770081      61.155962    
    473000   0.98744706     18.217665      60.969745    
    474000   1.0240731      18.343814      60.984179    
    475000   1.0077456      18.722311      60.620032    
    476000   1.0365536      18.211054      60.642085    
    477000   0.96082178     18.622933      60.496587    
    478000   0.97962319     18.006544      60.287229    
    479000   1.0108927      17.787401      60.176643    
    480000   1.0613598      18.370856      60.162033    
    481000   1.0146113      18.034545      59.861086    
    482000   1.0106889      18.192401      59.730986    
    483000   1.0240333      17.861606      59.70042     
    484000   1.0305791      17.955068      59.624575    
    485000   1.0097957      17.993798      59.270211    
    486000   1.0424168      18.484866      58.965845    
    487000   1.0386489      18.830591      58.788866    
    488000   1.0127726      18.539262      58.660956    
    489000   0.98925611     18.188698      58.418969    
    490000   0.9854488      18.074721      58.125447    
    491000   1.0051996      18.128857      57.820759    
    492000   0.97513491     18.113188      57.487123    
    493000   1.001842       18.806479      57.266477    
    494000   1.0163605      18.440342      57.058264    
    495000   0.98673574     17.944979      57.058219    
    496000   1.0035855      17.78272       56.846956    
    497000   0.99530552     17.824761      56.785384    
    498000   1.0515259      17.902552      56.80503     
    499000   1.0131427      18.738541      56.718583    
    500000   1.0229864      18.343474      56.664743    
    501000   0.99864228     17.551169      56.718259    
    502000   1.0028433      17.772539      56.479974    
    503000   1.0260127      18.806342      56.464999    
    504000   1.0022536      18.044122      56.394685    
    505000   1.0014307      17.633236      56.433635    
    506000   1.0067558      17.876467      56.443917    
    507000   1.0323613      18.310558      56.078313    
    508000   1.0096741      17.944587      55.892997    
    509000   0.94844127     18.222569      55.532577    
    510000   1.0191522      18.709997      55.481981    
    511000   1.0091845      18.331439      55.468543    
    512000   1.0394895      18.257038      54.931964    
    513000   1.0393325      18.230548      54.775217    
    514000   1.0164492      18.273509      54.685368    
    515000   1.0050396      18.387126      54.402136    
    516000   0.997882       18.443941      54.25717     
    517000   1.0466806      18.688837      54.125546    
    518000   1.0011615      18.013609      53.86336     
    519000   0.99592282     17.545678      53.741024    
    520000   0.95487306     17.72113       53.692331    
    521000   0.96781918     18.037601      53.83072     
    522000   0.99809408     17.985999      53.948997    
    523000   0.97614241     17.793869      53.759306    
    524000   0.98478967     17.896845      53.691248    
    525000   1.0783733      18.335677      53.658125    
    526000   0.99861262     17.836632      53.489677    
    527000   1.0094537      18.299518      53.385566    
    528000   1.009051       18.499376      53.208551    
    529000   0.98832101     17.930638      52.864791    
    530000   1.0250014      18.199609      52.870482    
    531000   1.0395411      17.794944      52.786865    
    532000   1.0154655      17.86868       52.786163    
    533000   0.92594162     18.371787      52.558454    
    534000   0.99977188     18.055446      52.692958    
    535000   1.0094661      18.193335      52.383292    
    536000   0.97313089     18.142017      52.191982    
    537000   1.0054278      18.629141      51.981906    
    538000   0.99287291     18.163405      51.937011    
    539000   0.96985848     18.804732      51.693387    
    540000   1.0236655      18.523668      51.53306     
    541000   1.0027481      18.588992      51.484164    
    542000   0.96177059     17.748955      51.649094    
    543000   1.0065715      17.368625      51.523361    
    544000   0.92987318     17.762145      51.508545    
    545000   0.98858482     18.504769      51.47802     
    546000   0.98817177     18.161366      51.564139    
    547000   1.013102       18.439529      51.388871    
    548000   0.99227986     18.247325      51.387538    
    549000   1.0149657      18.851687      51.519518    
    550000   1.004832       19.067381      51.348494    
    551000   1.019657       17.937676      51.30207     
    552000   0.96962403     18.23653       51.26671     
    553000   1.0261607      18.09756       51.244582    
    554000   0.99301558     18.271824      51.242894    
    555000   1.0225074      17.603553      51.078379    
    556000   0.97831832     18.426947      50.790252    
    557000   1.029563       18.820299      50.378877    
    558000   0.9312798      18.264835      50.466451    
    559000   1.0575668      17.595849      50.107067    
    560000   1.0304785      18.156974      50.005513    
    561000   0.95411172     17.956532      49.967648    
    562000   0.99020844     17.971064      50.027021    
    563000   1.0093326      18.241954      49.875558    
    564000   0.97990651     18.401259      50.0697      
    565000   1.0051681      18.124892      49.833508    
    566000   1.0325357      18.422848      49.848239    
    567000   0.99025332     18.460195      49.601437    
    568000   0.99443018     18.468942      49.537175    
    569000   1.0507113      18.434268      49.419863    
    570000   0.97059069     18.432725      49.213584    
    571000   1.0063738      18.577464      49.066423    
    572000   0.96516557     17.88565       48.740324    
    573000   0.93720723     17.738253      48.709152    
    574000   1.0360178      18.525064      48.338459    
    575000   1.0054577      18.152757      48.28947     
    576000   0.95291671     18.248573      48.042747    
    577000   0.97943852     17.793549      47.541835    
    578000   0.96722059     17.9889        47.27217     
    579000   1.0310647      17.973461      47.030631    
    580000   0.987023       18.383824      46.790758    
    581000   1.0213772      18.175406      46.805638    
    582000   0.9641327      17.470771      46.667396    
    583000   0.98008442     17.95127       46.461177    
    584000   1.0170836      17.765821      46.157374    
    585000   0.99131943     18.16868       46.160003    
    586000   0.995396       18.563212      46.104358    
    587000   1.0554152      17.827142      46.170881    
    588000   0.98576384     17.930564      46.090037    
    589000   1.0581143      18.338582      45.972596    
    590000   0.95400788     17.769096      45.852279    
    591000   1.0386589      17.779149      45.818289    
    592000   0.98834586     17.464657      45.801044    
    593000   1.0119499      18.133437      45.812842    
    594000   1.0058467      17.85061       45.563225    
    595000   1.0532263      18.000958      45.168819    
    596000   0.9526366      17.308267      45.176024    
    597000   0.95017144     18.182746      45.171107    
    598000   1.0350645      18.390854      45.293849    
    599000   0.95211175     18.249173      44.946665    
    600000   1.0002985      18.086759      44.919365    
    601000   1.013288       18.142685      44.511608    
    602000   1.0234439      18.001294      44.371515    
    603000   1.0583334      18.332807      44.122406    
    604000   0.96942049     17.395389      44.00012     
    605000   0.97461186     17.982815      43.838117    
    606000   0.95387918     17.886331      43.801961    
    607000   1.0057551      17.419977      43.734511    
    608000   1.0179048      18.051347      43.337642    
    609000   1.0080027      17.898162      43.10316     
    610000   0.99526007     17.667796      43.203478    
    611000   0.99121626     18.124452      43.155371    
    612000   0.98962167     18.109532      43.066094    
    613000   0.98645366     17.105319      42.926417    
    614000   0.96908978     17.68875       42.807315    
    615000   0.98049027     18.091852      42.51728     
    616000   0.95926651     18.442936      42.347129    
    617000   1.013466       17.49071       42.248986    
    618000   0.97393496     18.072341      41.929011    
    619000   1.0108711      17.957628      41.549798    
    620000   0.98888161     17.34508       41.706417    
    621000   0.95604728     18.275353      41.384061    
    622000   1.0333932      17.686105      41.509505    
    623000   1.0157121      18.778464      41.321361    
    624000   1.0235865      17.618847      41.18399     
    625000   0.98444636     17.153658      41.177291    
    626000   0.9656093      17.461135      41.073275    
    627000   1.0252582      18.263195      40.960495    
    628000   0.97315562     18.119685      40.768271    
    629000   1.0163915      17.938613      40.7389      
    630000   1.0065979      17.660936      40.64168     
    631000   1.0305537      18.136649      40.361951    
    632000   1.00996        17.439452      40.18557     
    633000   0.98438142     18.174635      40.220337    
    634000   0.94259963     17.841594      39.807196    
    635000   1.0052634      17.857614      39.82519     
    636000   0.97075742     17.459486      39.772301    
    637000   1.0672344      17.63941       39.475284    
    638000   1.0030451      17.258555      39.166116    
    639000   1.032718       17.859247      39.225271    
    640000   0.95137076     17.735961      39.030899    
    641000   0.99913383     17.629045      39.055831    
    642000   1.0438773      18.029528      39.160325    
    643000   1.0244588      17.556316      39.028678    
    644000   0.98132166     18.214995      38.995505    
    645000   0.98211923     17.791706      38.741353    
    646000   0.98845262     17.567969      38.610312    
    647000   1.0393779      17.489391      38.400362    
    648000   0.99392106     17.426498      38.399655    
    649000   1.0318337      17.627019      38.115289    
    650000   0.99771714     18.073703      38.002924    
    651000   1.0640149      18.577426      37.879499    
    652000   0.96823268     17.620607      37.80826     
    653000   0.97705508     17.780191      37.562724    
    654000   0.96804985     17.65874       37.379761    
    655000   0.96723647     18.256797      37.419661    
    656000   0.96751211     18.261052      37.524257    
    657000   1.000774       17.305317      37.426009    
    658000   1.0224987      18.00208       37.503548    
    659000   1.0252432      18.634268      37.488636    
    660000   0.99744522     18.027343      37.229781    
    661000   1.0151926      17.349131      37.044683    
    662000   1.0589028      18.410701      36.754428    
    663000   0.96074582     18.251537      36.761887    
    664000   1.0104176      18.323265      36.866881    
    665000   0.99910456     18.316893      36.7517      
    666000   0.99999345     18.024364      36.629276    
    667000   1.0250496      18.162515      36.006533    
    668000   0.97800761     17.924538      35.949566    
    669000   0.97942116     17.919221      35.851142    
    670000   0.96009097     17.771696      35.716341    
    671000   0.96322776     17.619241      35.639133    
    672000   1.081339       18.570082      35.361762    
    673000   1.0086435      17.901838      35.523463    
    674000   1.0061571      17.97078       35.559089    
    675000   1.0322739      18.068459      35.35426     
    676000   0.99848162     17.793223      34.996172    
    677000   0.97181777     18.173723      34.923159    
    678000   1.022391       17.706921      34.645663    
    679000   1.0185429      17.888774      34.510339    
    680000   0.99789984     17.870359      34.546282    
    681000   0.9271893      17.639722      34.711983    
    682000   1.0348867      17.698647      34.466552    
    683000   0.96763676     17.594937      34.489306    
    684000   1.0293559      18.181703      34.423022    
    685000   0.99113663     17.863121      34.364148    
    686000   1.0254021      18.140286      34.113354    
    687000   1.0737035      17.8311        33.745221    
    688000   0.97205308     17.586986      33.376233    
    689000   1.0188601      17.733866      33.497331    
    690000   0.98347158     17.001117      33.541443    
    691000   1.031537       17.959815      33.294273    
    692000   0.9898104      17.72341       33.134989    
    693000   1.0634803      18.009791      32.947021    
    694000   0.99361061     17.858554      32.915523    
    695000   1.024133       18.548036      32.943826    
    696000   1.0164191      17.732728      32.934975    
    697000   1.0018643      18.036319      32.91226     
    698000   1.0140125      17.273004      32.584484    
    699000   0.9632368      18.185824      32.526773    
    700000   1.0155729      17.739684      32.285326    
    701000   1.0521658      17.725915      32.154083    
    702000   1.028514       17.847088      32.032792    
    703000   1.0078037      17.435436      31.996243    
    704000   1.0533365      18.241715      31.957474    
    705000   1.01876        17.982307      31.526136    
    706000   0.98873696     17.711534      31.635111    
    707000   1.0313071      17.717991      31.751282    
    708000   1.0008913      18.040251      31.743546    
    709000   1.0157026      18.204174      31.643519    
    710000   1.034062       17.974457      31.517426    
    711000   1.0535631      17.874243      31.38478     
    712000   0.95888031     17.017875      31.161857    
    713000   1.0441835      17.85274       30.966013    
    714000   0.99520755     18.11899       30.76437     
    715000   1.0306384      17.909205      30.635263    
    716000   0.98519729     18.117289      30.596419    
    717000   0.97692231     17.87446       30.544247    
    718000   0.98175647     17.71301       30.357133    
    719000   1.0144078      17.444025      30.221254    
    720000   0.96926627     17.311363      30.102634    
    721000   1.0535748      18.449689      30.157546    
    722000   1.0166349      17.823084      30.156051    
    723000   0.99507419     17.386611      30.268325    
    724000   1.018456       17.139073      29.947842    
    725000   1.0306363      17.644964      29.725245    
    726000   1.0121633      17.573584      29.468588    
    727000   1.0031974      17.702503      29.448813    
    728000   1.0182346      17.276002      29.221081    
    729000   1.0425275      17.677732      29.187342    
    730000   1.016159       18.416097      29.132051    
    731000   0.99355504     18.273601      29.259086    
    732000   1.026049       17.917468      29.044355    
    733000   0.9676398      17.943699      28.890479    
    734000   0.99279903     17.848115      28.732689    
    735000   0.99952936     16.779818      28.734019    
    736000   1.0642365      17.160463      28.699303    
    737000   1.0009991      17.909166      28.571236    
    738000   0.99998797     17.125592      28.540147    
    739000   1.0086057      17.434245      28.448104    
    740000   1.0007244      17.643368      28.559031    
    741000   1.0297155      17.623773      28.280168    
    742000   1.0149752      17.724658      28.252456    
    743000   0.99062978     17.521094      28.197023    
    744000   1.0319953      18.145978      28.34722     
    745000   1.0123806      18.165397      28.4042      
    746000   0.96883897     17.328425      28.437222    
    747000   1.0336217      17.481546      28.225246    
    748000   1.0381554      17.710109      27.856612    
    749000   0.99608834     17.348051      27.696717    
    750000   1.0361145      18.270767      27.63092     
    751000   0.98106966     17.64247       27.318107    
    752000   1.0453828      18.402384      27.382098    
    753000   1.0290466      17.97284       27.456657    
    754000   0.96204414     17.106605      27.447974    
    755000   0.96120052     17.405211      27.390112    
    756000   0.97854074     17.361859      27.114575    
    757000   1.0534624      18.267115      27.026879    
    758000   1.0005278      17.036076      26.845012    
    759000   0.99872295     18.073866      26.810288    
    760000   1.0126273      17.894679      26.908687    
    761000   1.0116139      17.812201      26.807899    
    762000   0.94872315     17.86969       26.65975     
    763000   0.99114384     18.002276      26.918591    
    764000   0.96782767     17.451425      26.774247    
    765000   0.9837394      17.600004      26.695974    
    766000   1.0338378      17.519673      26.478428    
    767000   0.97287845     18.068538      26.327863    
    768000   0.98175841     17.971376      25.979069    
    769000   0.99545893     17.24009       25.840603    
    770000   0.99847741     18.125248      25.490571    
    771000   1.0465224      17.806894      25.472505    
    772000   1.0008898      17.458784      25.508038    
    773000   1.0401041      17.311959      25.399699    
    774000   1.0147231      17.267645      25.299201    
    775000   0.99567081     18.216246      25.144975    
    776000   1.0329292      17.484703      24.960469    
    777000   0.987169       17.148598      24.738517    
    778000   0.97859233     17.755779      24.616374    
    779000   1.0181052      18.233816      24.342551    
    780000   0.95971228     17.918048      24.387166    
    781000   1.0045824      17.887532      24.164641    
    782000   0.98667221     18.050962      24.046776    
    783000   1.0021873      17.729207      24.044995    
    784000   1.0007919      17.451012      23.819696    
    785000   1.0028693      17.621372      24.031908    
    786000   0.9922918      17.840737      24.043299    
    787000   0.99242067     17.613787      23.80288     
    788000   1.0080944      17.836419      23.752329    
    789000   0.9891863      17.194734      23.512807    
    790000   0.95384474     17.561151      23.27391     
    791000   0.94722245     17.381995      23.150152    
    792000   1.0190838      18.036003      23.051506    
    793000   1.0194545      17.825113      22.728643    
    794000   1.0188559      17.606071      22.588063    
    795000   0.99847684     17.841065      22.230613    
    796000   0.9977095      17.249244      22.046343    
    797000   1.0309996      17.812964      21.921641    
    798000   0.99808629     17.269914      22.022894    
    799000   1.0484258      17.26317       21.837559    
    800000   0.97953121     18.001277      21.793502    
    801000   0.96817414     17.33616       21.781623    
    802000   0.99788464     16.661834      21.599029    
    803000   1.0658705      18.027201      21.690499    
    804000   1.0587051      17.790096      21.772467    
    805000   1.0336531      17.620361      21.551134    
    806000   1.0011873      18.042048      21.631964    
    807000   0.99639687     18.245895      21.684558    
    808000   1.0456725      17.454481      21.686028    
    809000   1.0138253      17.716897      21.866491    
    810000   1.0392473      17.838174      21.700841    
    811000   0.99057285     17.315197      21.67449     
    812000   1.0053726      17.567738      21.51859     
    813000   1.0085151      17.511526      21.496089    
    814000   0.96682022     17.436626      21.618547    
    815000   1.0098219      17.823233      21.421419    
    816000   0.96347943     17.151673      21.22414     
    817000   1.0311827      17.392453      21.188155    
    818000   1.0326782      18.009911      21.157079    
    819000   1.0111963      17.14506       21.188125    
    820000   0.99094396     17.75636       21.163451    
    821000   0.96504617     17.546055      20.911017    
    822000   1.0415579      18.244535      20.666759    
    823000   0.99312275     17.169139      20.392889    
    824000   1.0475952      16.910863      20.370554    
    825000   0.9369311      17.358155      20.334364    
    826000   1.0074362      17.570673      20.505297    
    827000   0.98163291     17.47712       20.447424    
    828000   0.97132027     17.235637      20.2282      
    829000   1.0146973      17.445944      20.262867    
    830000   1.0457295      17.679421      19.972694    
    831000   1.0229257      17.007767      19.80735     
    832000   0.99700931     17.773399      19.810052    
    833000   0.94464725     17.126438      19.593133    
    834000   1.0014353      17.730121      19.609544    
    835000   1.0047347      17.505942      19.62276     
    836000   0.97493074     17.438692      19.412721    
    837000   1.0070049      17.299569      19.343086    
    838000   0.92048585     17.417562      19.242339    
    839000   1.0136988      17.741608      19.086195    
    840000   1.0315292      17.157606      18.960589    
    841000   1.0099429      18.185392      18.653868    
    842000   0.9802648      17.805158      18.165745    
    843000   0.99378317     18.150582      17.971534    
    844000   1.0098728      17.093834      17.89189     
    845000   1.0076278      17.875998      17.804328    
    846000   0.97988607     17.24896       17.730104    
    847000   1.0419202      18.013536      17.522764    
    848000   0.98849645     16.953434      17.346406    
    849000   1.0349622      17.532896      17.377325    
    850000   0.99880128     18.027932      17.344414    
    851000   0.97098016     17.718621      17.281818    
    852000   1.0132384      17.73601       17.018264    
    853000   0.99279236     17.612575      17.213472    
    854000   1.0285559      17.871143      16.991965    
    855000   1.0048167      17.348045      16.664933    
    856000   1.0148394      17.563647      16.739025    
    857000   1.0069307      17.334041      16.565085    
    858000   0.99178843     17.770318      16.624093    
    859000   0.99162917     17.489695      16.470303    
    860000   1.0171653      17.991196      16.156626    
    861000   1.0126366      17.440198      16.206816    
    862000   0.98391144     17.668584      16.021612    
    863000   1.0052741      17.730038      15.959728    
    864000   0.98879461     17.318281      16.082997    
    865000   0.9854712      17.347185      15.95544     
    866000   1.0282944      17.919239      15.9707      
    867000   0.96098222     17.162813      15.995905    
    868000   0.97478598     18.259664      16.079147    
    869000   0.97134905     17.176049      15.925613    
    870000   1.0326164      18.009017      15.687858    
    871000   1.0004407      17.878956      15.532428    
    872000   0.97884775     17.077543      15.314107    
    873000   0.997755       17.461558      15.101824    
    874000   0.96248622     17.454862      14.830126    
    875000   1.0118163      17.414526      14.534919    
    876000   1.051533       16.802569      14.203357    
    877000   1.0358222      17.650107      14.016297    
    878000   1.0268947      17.107424      13.635351    
    879000   0.99038957     17.47231       13.321132    
    880000   0.94540484     17.305961      13.154255    
    881000   0.99993172     17.397128      12.939238    
    882000   0.99099461     17.610153      12.807222    
    883000   0.99609969     17.843682      12.697254    
    884000   1.0200056      17.431022      12.423874    
    885000   1.0360018      17.292281      12.314363    
    886000   1.0145157      17.35011       12.231577    
    887000   1.0222832      17.235327      12.158395    
    888000   1.0097677      17.18241       11.861047    
    889000   0.95984845     16.771673      11.5718      
    890000   1.0156275      17.639036      11.289808    
    891000   1.0410498      18.08526       11.080082    
    892000   1.0127992      17.294115      11.058098    
    893000   1.0503822      17.643138      11.016519    
    894000   1.0190065      16.916759      11.080362    
    895000   0.961551       16.984201      10.924806    
    896000   1.0071397      17.433405      10.910648    
    897000   1.0011757      16.766356      10.801396    
    898000   0.98516234     17.7341        10.946511    
    899000   1.0001345      16.916445      10.792106    
    900000   1.0164533      16.520833      10.780526    
    901000   1.0306658      18.147062      10.645414    
    902000   1.0316972      17.081269      10.502868    
    903000   0.94860883     17.086271      10.64148     
    904000   1.0206542      16.794521      10.630888    
    905000   0.97217268     17.199269      10.713751    
    906000   1.0122517      17.686607      10.863099    
    907000   1.0491499      17.47174       10.678653    
    908000   1.0139696      17.569405      10.566817    
    909000   0.98707554     17.369838      10.278136    
    910000   1.0045461      16.939315      10.103628    
    911000   1.0002859      17.272522      9.989671     
    912000   1.0016865      17.746653      9.9306375    
    913000   1.0183656      17.271408      9.7061061    
    914000   1.0488329      18.011848      9.6155633    
    915000   0.99103706     17.067147      9.3854433    
    916000   0.99232566     17.661069      9.109542     
    917000   0.99243023     17.299614      8.8253266    
    918000   0.99409032     17.254888      8.5611187    
    919000   1.0158516      17.43614       8.3694681    
    920000   1.0092154      16.374143      8.3517089    
    921000   1.0268822      17.459688      8.0973902    
    922000   0.97735248     17.396343      8.0087866    
    923000   0.99030259     16.786049      8.0453841    
    924000   0.96446509     17.058852      8.0721289    
    925000   1.0119165      17.143041      8.0433081    
    926000   1.0141742      17.218797      8.0738684    
    927000   1.0325861      16.926014      7.9356081    
    928000   0.99835199     18.083825      7.6884978    
    929000   0.97963411     16.829982      7.4721514    
    930000   1.0301621      16.975314      7.2686044    
    931000   1.0030129      17.698978      7.1004464    
Fix halt condition for fix-id 3 met on step 932000 with value 6.935508953634175 (src/fix_halt.cpp:237)
    932000   0.99154075     17.405071      6.935509     
Loop time of 1125.59 on 2 procs for 832000 steps with 799 atoms

Performance: 638643.144 tau/day, 739.170 timesteps/s
112.5% CPU use with 1 MPI tasks x 2 OpenMP threads

MPI task timing breakdown:
Section |  min time  |  avg time  |  max time  |%varavg| %total
---------------------------------------------------------------
Pair    | 172.2      | 172.2      | 172.2      |   0.0 | 15.30
Bond    | 17.395     | 17.395     | 17.395     |   0.0 |  1.55
Neigh   | 891.29     | 891.29     | 891.29     |   0.0 | 79.18
Comm    | 0.29659    | 0.29659    | 0.29659    |   0.0 |  0.03
Output  | 2.6386     | 2.6386     | 2.6386     |   0.0 |  0.23
Modify  | 39.049     | 39.049     | 39.049     |   0.0 |  3.47
Other   |            | 2.716      |            |       |  0.24

Nlocal:            799 ave         799 max         799 min
Histogram: 1 0 0 0 0 0 0 0 0 0
Nghost:              0 ave           0 max           0 min
Histogram: 1 0 0 0 0 0 0 0 0 0
Neighs:         145013 ave      145013 max      145013 min
Histogram: 1 0 0 0 0 0 0 0 0 0

Total # of neighbors = 145013
Ave neighs/atom = 181.49312
Ave special neighs/atom = 1.9974969
Neighbor list builds = 7842
Dangerous builds = 0

# This simulation is done
# Move onto the next one
clear
  using 2 OpenMP thread(s) per MPI task
package omp 0
using multi-threaded neighbor list subroutines
next f
jump SELF

###
# Reference paper:
# K. Kremer and G. S. Grest
# Dynamics of entangled linear polymer melts: A molecular-dynamics simulation
# J Chem Phys 92, 5057 (1990)

##################################
# MIHIR: for branched polymers
# LJ minimum first to expand and explore, then collapse
###

###
# Looping through the various N1B3 polymers to simulate,
# define variables to switch through
#variable f index bb66nuc1bl33bn3d30tot100 bb133nuc1bl66bn3d30tot200 bb200nuc1bl100bn3d30tot300 bb266nuc1bl133bn3d30tot400 bb333nuc1bl166bn3d30tot500 bb400nuc1bl200bn3d30tot600 bb466nuc1bl233bn3d30tot700 bb533nuc1bl266bn3d30tot800 bb600nuc1bl300bn3d30tot900 bb666nuc1bl333bn3d30tot1000 bb733nuc1bl366bn3d30tot1100 bb800nuc1bl400bn3d30tot1200
# variable f index bb66nuc1bl33bn3d30tot100V3 bb133nuc1bl66bn3d30tot200V3 bb200nuc1bl100bn3d30tot300V3 bb266nuc1bl133bn3d30tot400V3 bb333nuc1bl166bn3d30tot500V3 bb400nuc1bl200bn3d30tot600V3 bb466nuc1bl233bn3d30tot700V3 bb533nuc1bl266bn3d30tot800V3 bb600nuc1bl300bn3d30tot900V3 bb666nuc1bl333bn3d30tot1000V3 bb733nuc1bl366bn3d30tot1100V3 bb800nuc1bl400bn3d30tot1200V3
variable f index bb66nuc1bl33bn3d30tot100V2 bb133nuc1bl66bn3d30tot200V2 bb200nuc1bl100bn3d30tot300V2 bb266nuc1bl133bn3d30tot400V2 bb333nuc1bl166bn3d30tot500V2 bb400nuc1bl200bn3d30tot600V2 bb466nuc1bl233bn3d30tot700V2 bb533nuc1bl266bn3d30tot800V2 bb600nuc1bl300bn3d30tot900V2 bb666nuc1bl333bn3d30tot1000V2 bb733nuc1bl366bn3d30tot1100V2 bb800nuc1bl400bn3d30tot1200V2
#variable f index bb733nuc1bl366bn3d30tot1100V2 bb800nuc1bl400bn3d30tot1200V2
###


###
# Box and units  (use LJ units and periodic boundaries)
###

units lj
log N1B3/trial2/logs3/$f.log
log N1B3/trial2/logs3/bb600nuc1bl300bn3d30tot900V2.log
