#atom_style bond #no stiffness
atom_style angle #with stiffness

boundary        p p p
###
# Pair interactions require lists of neighbours to be calculated
###

#neighbor 0.3 bin
neighbor 4 bin

neigh_modify every 1 delay 1 check yes
atom_modify sort 0 0
### Generate RESTART file, SPECIAL format, not a .txt file ###
### Useful if simulation crashes ###

restart 1000000 N1B3/trial2/restarts3/$f.restart
restart 1000000 N1B3/trial2/restarts3/bb600nuc1bl300bn3d30tot900V2.restart
#############################



### READ "start" data file ###

read_data N1B3/trial2/dats2/$f.dat
read_data N1B3/trial2/dats2/bb600nuc1bl300bn3d30tot900V2.dat
Reading data file ...
  orthogonal box = (-1000 -1000 -1000) to (1000 1000 1000)
  1 by 1 by 1 MPI processor grid
  reading atoms ...
  901 atoms
  scanning bonds ...
  2 = max bonds/atom
  scanning angles ...
  3 = max angles/atom
  reading bonds ...
  900 bonds
  reading angles ...
  900 angles
Finding 1-2 1-3 1-4 neighbors ...
  special bond factors lj:    0        0        0       
  special bond factors coul:  0        0        0       
     3 = max # of 1-2 neighbors
     3 = max # of 1-3 neighbors
     6 = max # of 1-4 neighbors
     9 = max # of special neighbors
  special bonds CPU = 0.002 seconds
  read_data CPU = 0.194 seconds

######################

### READ "REstart" data file ###

######################



###
# Define groups (atom type 1 is group 'all')
###
group all type 1
901 atoms in group all


###
# Dump configs - "simple dumpings"
###

###
# Dump configs + box coords
###

dump   1   all   custom   1000  N1B3/trial2/trjs3/$f.lammpstrj  id  x y z  ix iy iz
dump   1   all   custom   1000  N1B3/trial2/trjs3/bb600nuc1bl300bn3d30tot900V2.lammpstrj  id  x y z  ix iy iz
dump_modify   1   format line "%d %.5f %.5f %.5f %d %d %d"

########################################################################


###################################################################
# Stiffness term
#
# E = K * (1+cos(theta)), K>0
#
angle_style   cosine
#change this coefficient to change stiffness (e.g. 1,5,10)
angle_coeff   1 1.0
###################################################################

###################################################################
# Pair interaction between non-bonded atoms
#
#  Lennard-Jones 12-6 potential with cutoff:
#  potential E=4epsilon[ (sigma/r)^12 - (sigma/r)^6]  for r<r_cut
#
#  1.12246 = 2^(1/6) is the minimum of the potential


pair_style      lj/cut 1.12246152962189
#pair_style      lj/cut 3

#
#  pair_modify shift yes adds a constant to the potential such

#  that E(r_cut)=0. Forces remains unchanged.
#

pair_modify     shift yes

#
#  pair_coeff for lj/cut, specify 4:
#    * atom type interacting with
#    * atom type
#    * epsilon (energy units)
#    * sigma (distance units)
#

pair_coeff      1 1 1.0 1.0
###################################################################

###################################################################
# Pair interaction between non-bonded atoms
#
#  soft potential, for PUSHING apart overlapping atoms
#  potential E=A*(1 + cos(pi*r/r_c))
#
#  1.12246 = 2^(1/6) is the cut-off r_c

#pair_style     soft 1.12246152962189

#
#  pair_coeff for soft, specify 3:
#    * atom type interacting with
#    * atom type
#    * A
#
#

#pair_coeff      1 1 100.0
###################################################################

###################################################################
# Pair interaction between bonded atoms
#
# Fene potential + Lennard Jones 12-6:

#
#  E= - 0.5 K R0^2 ln[ 1- (r/R0)^2]
#     + 4epsilon[ (sigma/r)^12 - (sigma/r)^6] + epsilon
#

bond_style   fene


#
# For style fene, specify:
#   * bond type
#   * K (energy/distance^2)
#   * R0 (distance)
#   * epsilon (energy)  (LJ component)
#   * sigma (distance)  (LJ component)
#


special_bonds fene #<=== I M P O R T A N T (new command)
Finding 1-2 1-3 1-4 neighbors ...
  special bond factors lj:    0        1        1       
  special bond factors coul:  0        1        1       
     3 = max # of 1-2 neighbors
     9 = max # of special neighbors
  special bonds CPU = 0.001 seconds

bond_coeff   1   30   2   1.0   1.0


###################################################

###################################################################
# Pair interaction between bonded atoms
#
# Harmonic potential:
#
#  E= K * (R-R0)^2
#

#bond_style   harmonic

#
# For style harmonic, specify:
#   * bond type
#   * K (energy/distance^2)
#   * R0 (distance)
#

#bond_coeff   1   60.0   1.0
#bond_coeff   2   harmonic 0.1   1.0

###################################################
compute 1 all gyration
variable rog equal c_1
#compute 2 all coord/atom cutoff 1.1

#dump 2 all custom 10000 contact_number.dump id c_2


###
# Set up fixes
###
thermo_style   custom   step  temp enthalpy c_1
fix 1 all nve   ###NVE ensemble

fix 2 all   langevin   1.0 1.0 1.0  778655   ###Langevin integrator Tstart Tstop 1/friction rndseed


##### Sample thermodynamic info  (temperature, energy, pressure, etc.) #####
thermo 1000









############################################################################

###
# set timestep of integrator

timestep 0.01

###
# run integration for a number of steps
###
#run 0
#variable r equal c_1
#if "$r < 63.1" then "quit 1"

# lj potential minimum, cause molecule to explore
run 100000
Generated 0 of 0 mixed pair_coeff terms from geometric mixing rule
Last active /omp style is angle_style cosine/omp
Neighbor list info ...
  update: every = 1 steps, delay = 1 steps, check = yes
  max neighbors/atom: 2000, page size: 100000
  master list distance cutoff = 5.1224615
  ghost atom cutoff = 5.1224615
  binsize = 2.5612308, bins = 781 781 781
  1 neighbor lists, perpetual/occasional/extra = 1 0 0
  (1) pair lj/cut/omp, perpetual
      attributes: half, newton on, omp
      pair build: half/bin/newton/omp
      stencil: half/bin/3d
      bin: standard
WARNING: Communication cutoff 5.12246152962189 is shorter than a bond length based estimate of 5.455. This may lead to errors. (src/comm.cpp:723)
Per MPI rank memory allocation (min/avg/max) = 1860 | 1860 | 1860 Mbytes
   Step          Temp         Enthalpy         c_1      
         0   0              13.180811      159.9593     
      1000   0.98886761     16.865677      159.48171    
      2000   1.0661239      17.306682      158.80187    
      3000   0.95750445     17.209958      158.13361    
      4000   1.0403205      17.447812      157.54236    
      5000   0.98372304     17.646381      156.95802    
      6000   0.97475774     18.080122      156.44441    
      7000   0.98234065     17.620401      156.03606    
      8000   1.0170562      18.479749      155.51313    
      9000   1.0123391      17.800847      154.95107    
     10000   1.0327352      17.926002      154.42554    
     11000   0.98521293     18.513305      154.22775    
     12000   1.0036944      18.457348      153.94866    
     13000   1.0308388      18.531482      153.44042    
     14000   1.0251487      18.048315      152.91404    
     15000   0.94962395     18.384149      152.53363    
     16000   1.0098636      17.851091      152.09026    
     17000   0.96396032     18.509663      151.59664    
     18000   0.95451854     18.730891      151.24912    
     19000   0.98421624     18.228336      150.77666    
     20000   1.0415882      18.672236      150.43483    
     21000   1.0106667      18.458451      149.87419    
     22000   0.92590053     18.849959      149.3664     
     23000   1.0039251      19.378536      148.9713     
     24000   1.0145557      19.076385      148.64068    
     25000   0.97321307     18.968099      148.34882    
     26000   0.99076689     18.686693      148.10463    
     27000   1.0264275      18.932387      147.91808    
     28000   0.98302122     18.714173      147.62284    
     29000   0.94633283     19.067327      147.24304    
     30000   0.97519344     19.239479      146.96899    
     31000   1.0586593      19.698492      146.6763     
     32000   1.0734051      19.214752      146.50838    
     33000   1.0376412      19.578139      146.31129    
     34000   0.98602229     19.118284      146.14936    
     35000   1.0029409      19.441089      145.85858    
     36000   0.99737158     18.909277      145.62888    
     37000   0.97436784     18.937122      145.35088    
     38000   0.99485857     18.966251      145.11354    
     39000   0.96820329     19.312041      144.72047    
     40000   0.95151028     18.933247      144.42732    
     41000   1.0070447      19.001496      144.16575    
     42000   0.99777642     19.053326      143.91465    
     43000   0.97603609     19.011235      143.71117    
     44000   0.9944364      18.892898      143.6571     
     45000   0.98941005     19.418966      143.49392    
     46000   0.98850769     19.395043      143.49588    
     47000   0.9975987      19.028005      143.47137    
     48000   1.0028771      19.573477      143.11133    
     49000   1.0494146      19.421428      142.88421    
     50000   0.99704535     19.105886      142.80681    
     51000   1.0200911      19.894392      142.50547    
     52000   0.98844004     19.73643       142.16683    
     53000   1.0426248      19.262071      141.97347    
     54000   0.99176191     18.693832      141.67321    
     55000   1.0059972      19.702885      141.53159    
     56000   0.98845231     19.086386      141.1621     
     57000   1.0422882      19.227411      141.09785    
     58000   0.99360362     19.316105      141.077      
     59000   1.021885       19.362043      140.82317    
     60000   1.0150914      19.676407      140.65357    
     61000   1.036687       19.343953      140.41301    
     62000   1.0133706      19.340349      140.26418    
     63000   1.0350482      19.613631      139.8659     
     64000   1.0083011      20.06989       139.48839    
     65000   0.96853762     19.227221      139.36669    
     66000   0.99373372     19.500285      139.26928    
     67000   0.99260032     19.208542      139.14289    
     68000   0.94203407     19.695213      139.08824    
     69000   1.0147006      19.042716      138.86981    
     70000   0.97135861     18.821791      138.49808    
     71000   1.0217486      19.893581      138.21568    
     72000   0.99906552     19.944534      137.99207    
     73000   1.0248311      19.397556      137.63562    
     74000   0.99226107     19.279864      137.41436    
     75000   1.0201546      20.043524      137.39989    
     76000   1.0443535      19.502664      137.31533    
     77000   0.98846991     19.498421      137.1866     
     78000   0.96175467     19.426737      137.04823    
     79000   0.96365796     19.440084      136.78986    
     80000   0.96913732     18.977884      136.71811    
     81000   1.0185654      20.239694      136.43772    
     82000   0.96989632     19.723666      136.16556    
     83000   0.95890476     19.67666       135.93878    
     84000   0.97317797     19.547009      135.53519    
     85000   0.98915306     19.43955       135.30586    
     86000   1.0162148      19.579654      135.17208    
     87000   0.97793291     19.572775      135.17199    
     88000   1.0153198      19.793167      134.94276    
     89000   1.0075278      19.417052      134.6623     
     90000   0.99063974     20.014547      134.28198    
     91000   0.96253698     19.417754      134.07171    
     92000   0.94484304     20.019399      134.10337    
     93000   0.97909464     20.201115      133.94458    
     94000   0.97996862     19.616972      133.92354    
     95000   1.0036059      19.789645      133.77031    
     96000   0.97585729     19.581657      133.77488    
     97000   0.99115008     19.585834      133.59955    
     98000   1.0342159      19.51616       133.29626    
     99000   0.98383855     19.975087      133.00115    
    100000   1.0007551      20.264985      132.7815     
Loop time of 314.078 on 2 procs for 100000 steps with 901 atoms

Performance: 275090.772 tau/day, 318.392 timesteps/s
95.5% CPU use with 1 MPI tasks x 2 OpenMP threads

MPI task timing breakdown:
Section |  min time  |  avg time  |  max time  |%varavg| %total
---------------------------------------------------------------
Pair    | 1.0727     | 1.0727     | 1.0727     |   0.0 |  0.34
Bond    | 2.399      | 2.399      | 2.399      |   0.0 |  0.76
Neigh   | 304.64     | 304.64     | 304.64     |   0.0 | 97.00
Comm    | 0.034662   | 0.034662   | 0.034662   |   0.0 |  0.01
Output  | 0.33853    | 0.33853    | 0.33853    |   0.0 |  0.11
Modify  | 5.2473     | 5.2473     | 5.2473     |   0.0 |  1.67
Other   |            | 0.3431     |            |       |  0.11

Nlocal:            901 ave         901 max         901 min
Histogram: 1 0 0 0 0 0 0 0 0 0
Nghost:              0 ave           0 max           0 min
Histogram: 1 0 0 0 0 0 0 0 0 0
Neighs:           4636 ave        4636 max        4636 min
Histogram: 1 0 0 0 0 0 0 0 0 0

Total # of neighbors = 4636
Ave neighs/atom = 5.145394
Ave special neighs/atom = 1.9977802
Neighbor list builds = 1048
Dangerous builds = 0

# Replace lj potential, now collapse
pair_style      lj/cut 3

# Cutoff simul when gyration under 7
# Variable created with equal requires v_ + 'name'
fix 3 all halt 1000 v_rog < 7

run 5000000
Generated 0 of 0 mixed pair_coeff terms from geometric mixing rule
Last active /omp style is angle_style cosine/omp
Per MPI rank memory allocation (min/avg/max) = 1860 | 1860 | 1860 Mbytes
   Step          Temp         Enthalpy         c_1      
    100000   1.0007551      19.738675      132.7815     
    101000   0.98656476     19.209011      132.70602    
    102000   0.98350432     19.235663      132.49166    
    103000   1.0523977      19.781466      132.39485    
    104000   1.0082038      19.410457      132.2092     
    105000   1.0373378      19.677383      131.97709    
    106000   1.0533437      19.66709       131.90448    
    107000   0.99336225     19.614484      131.71278    
    108000   0.99011849     18.954865      131.4302     
    109000   1.0463834      19.763028      131.2875     
    110000   1.0060978      19.172076      131.13879    
    111000   1.0189431      19.308867      130.71354    
    112000   1.0075912      18.972368      130.51088    
    113000   0.99297108     19.443179      130.24445    
    114000   1.024136       19.254229      130.43745    
    115000   0.97719378     19.582316      130.3862     
    116000   0.97829519     19.569304      130.32524    
    117000   0.98227325     19.386146      129.86404    
    118000   1.0342894      19.688095      129.49897    
    119000   0.99987051     19.179964      129.35717    
    120000   1.026035       19.863587      129.14272    
    121000   1.0266874      19.315221      128.97089    
    122000   1.0438065      19.562325      128.96832    
    123000   0.99041121     18.807717      128.8684     
    124000   1.0113586      19.802295      128.72782    
    125000   1.0023175      19.196749      128.66417    
    126000   0.99415584     19.484487      128.47016    
    127000   0.98294621     19.745436      128.2145     
    128000   1.0304737      20.068873      128.25345    
    129000   0.95748758     19.254655      128.33957    
    130000   1.0221615      19.138498      128.36052    
    131000   0.97025426     19.002111      128.05793    
    132000   1.0509162      19.357141      127.90901    
    133000   1.0039701      19.433239      127.80363    
    134000   1.0192815      19.679381      127.76469    
    135000   0.98255483     19.494576      127.64526    
    136000   1.0251628      19.159291      127.50467    
    137000   1.0418239      19.064301      127.44597    
    138000   1.0033756      19.167947      127.21267    
    139000   0.97140941     18.855539      127.01817    
    140000   1.0012954      19.409959      126.54019    
    141000   0.94913651     19.283249      126.36284    
    142000   0.99756078     19.391448      126.19296    
    143000   0.98335283     19.066276      125.76817    
    144000   0.99215664     19.416556      125.56398    
    145000   1.0047282      18.793061      125.3494     
    146000   1.0020597      18.733425      125.18283    
    147000   1.0104574      19.165809      124.92204    
    148000   1.051409       19.568303      124.96902    
    149000   0.98972922     18.923564      124.94963    
    150000   0.9914175      19.208264      124.78366    
    151000   1.0060075      19.270824      124.61876    
    152000   1.002459       19.317512      124.35655    
    153000   1.0007549      19.255591      124.19591    
    154000   0.97080957     19.075267      124.07084    
    155000   0.95372228     19.241302      123.71643    
    156000   1.0108899      19.836935      123.6045     
    157000   1.0161843      19.582964      123.36513    
    158000   0.98331046     19.495228      123.01049    
    159000   1.0023101      19.136469      122.82959    
    160000   0.96532193     19.201345      122.7085     
    161000   0.97489813     19.245279      122.62827    
    162000   0.96978217     19.028662      122.52491    
    163000   1.0601202      19.526438      122.33695    
    164000   0.97619046     18.945665      122.09258    
    165000   1.0199307      18.902126      121.88906    
    166000   0.98989976     18.860118      121.80513    
    167000   1.0337816      18.939762      121.65302    
    168000   1.0166155      19.077514      121.51909    
    169000   1.0430364      19.230616      121.32414    
    170000   1.0355889      18.755863      121.09046    
    171000   0.97510225     19.14747       121.13038    
    172000   0.99067295     19.363076      121.22229    
    173000   1.0044565      18.50954       121.10754    
    174000   0.97447065     18.910948      120.83477    
    175000   0.96241126     19.225764      120.83586    
    176000   1.044012       19.273948      120.70119    
    177000   0.9701743      18.537122      120.45849    
    178000   1.0021557      18.756421      120.33897    
    179000   0.99988241     18.95379       120.18036    
    180000   1.0097235      19.084666      119.9598     
    181000   0.98035538     18.943443      119.6385     
    182000   0.9886878      19.327215      119.39665    
    183000   0.97538664     19.177339      119.30045    
    184000   0.96853706     19.305304      119.03729    
    185000   0.99673602     18.901533      118.91268    
    186000   1.0131148      19.472426      118.81641    
    187000   1.0419976      19.170544      118.55914    
    188000   0.98917429     18.949422      118.29713    
    189000   1.0212341      18.918041      118.06353    
    190000   0.97214818     18.420027      118.03808    
    191000   0.99518601     18.815854      118.04283    
    192000   0.97734304     19.344991      117.77429    
    193000   0.96614312     19.060321      117.88516    
    194000   1.042852       19.044595      117.94154    
    195000   1.0410159      19.095951      117.75182    
    196000   1.0245791      19.520895      117.56318    
    197000   1.0238671      19.523362      117.24641    
    198000   0.98281683     18.83968       117.06537    
    199000   1.0362525      19.500091      117.0205     
    200000   1.0123249      19.018685      117.11764    
    201000   1.0381329      19.759016      117.05322    
    202000   1.0005853      18.563113      116.91418    
    203000   0.95937492     19.487277      116.78559    
    204000   1.0057007      19.434624      116.68566    
    205000   0.99899616     19.660843      116.73556    
    206000   0.96854936     19.073429      116.81501    
    207000   1.0526719      18.866979      116.71153    
    208000   1.0181893      19.276867      116.58389    
    209000   0.94918208     18.610306      116.35448    
    210000   1.0584414      19.045697      116.53897    
    211000   0.96734657     19.335133      116.62716    
    212000   0.97850084     18.586871      116.26194    
    213000   1.0033745      18.371583      116.15835    
    214000   0.97653822     18.691861      115.98959    
    215000   1.0046142      18.465296      115.81515    
    216000   1.001685       18.675156      115.80759    
    217000   0.98797264     19.117382      115.62193    
    218000   1.0023165      19.417638      115.08564    
    219000   0.9800491      18.840552      114.91396    
    220000   1.0006906      19.009539      114.54099    
    221000   0.98331559     19.346153      114.31738    
    222000   0.99933218     18.22991       114.31789    
    223000   1.0032725      19.003932      114.13508    
    224000   0.98226306     18.695201      114.16328    
    225000   0.98442199     19.073831      113.90549    
    226000   1.0002373      19.071555      113.5708     
    227000   1.0285324      19.357108      113.44595    
    228000   1.017043       18.833693      113.24168    
    229000   0.97885752     18.56866       113.23705    
    230000   0.99195955     18.876851      113.05944    
    231000   1.0220578      19.559111      112.62271    
    232000   0.99997735     19.172695      112.62299    
    233000   1.0078965      19.545195      112.51416    
    234000   0.96798694     18.221565      112.32453    
    235000   0.97868296     19.172121      112.25916    
    236000   1.0113255      19.127998      112.16215    
    237000   1.0130047      19.462052      111.98045    
    238000   0.98598648     18.935548      111.77644    
    239000   0.98041833     18.534915      111.68663    
    240000   0.99903294     18.765246      111.58856    
    241000   1.014426       19.298392      111.39412    
    242000   1.0425033      19.269357      111.14033    
    243000   0.98491317     19.609758      111.08865    
    244000   1.0307306      18.758253      110.69639    
    245000   1.0530432      18.9817        110.55164    
    246000   1.0046617      18.97853       110.15095    
    247000   0.98974181     18.8832        109.97393    
    248000   1.0310724      19.646985      109.76752    
    249000   0.99888056     19.152103      109.88749    
    250000   0.94453942     18.704226      109.67849    
    251000   1.0453277      19.736603      109.48169    
    252000   0.9905957      19.064679      109.50315    
    253000   1.050153       19.48952       109.3267     
    254000   1.0022037      18.491008      109.35603    
    255000   0.96049654     19.160724      109.08021    
    256000   1.0435982      18.826452      108.7787     
    257000   0.98129658     18.897324      108.80847    
    258000   1.0389947      19.144175      108.64924    
    259000   0.99819609     18.830944      108.30402    
    260000   0.9836651      18.720698      108.33159    
    261000   0.97115708     18.722474      108.24849    
    262000   1.0223704      18.741031      108.03144    
    263000   1.0129704      18.716309      108.02098    
    264000   0.98342814     18.878752      107.94887    
    265000   0.99128177     18.810649      107.93431    
    266000   1.0094905      19.472347      107.89149    
    267000   0.97685763     18.756109      107.56297    
    268000   0.98614814     18.512939      107.43561    
    269000   1.0535739      19.25808       107.28293    
    270000   0.99175464     19.272392      107.35568    
    271000   1.0112403      18.616389      107.03816    
    272000   1.0607519      18.822125      106.88497    
    273000   1.0001181      19.139642      106.72614    
    274000   1.0092493      19.087596      106.70081    
    275000   0.95385258     18.658328      106.57104    
    276000   0.96960721     18.513446      106.76456    
    277000   1.0001324      18.703549      106.70061    
    278000   0.98393454     18.605166      106.52595    
    279000   1.0365133      19.431847      106.37377    
    280000   0.98219117     19.064116      106.32183    
    281000   1.0200565      18.601792      106.43266    
    282000   1.0655888      19.118197      105.96724    
    283000   0.99476721     18.971168      105.73181    
    284000   0.96825298     18.871304      105.76769    
    285000   0.96759244     18.740205      105.58338    
    286000   1.0055463      19.285537      105.572      
    287000   0.9910435      19.680926      105.07103    
    288000   1.0333183      18.882645      104.90483    
    289000   0.97540718     19.433208      104.63371    
    290000   1.0117617      18.909118      104.32067    
    291000   1.0002988      19.04844       104.25959    
    292000   0.99932553     18.810337      104.26525    
    293000   0.98073184     19.245156      104.1607     
    294000   1.0404403      18.704585      104.03661    
    295000   0.981889       19.018032      103.61542    
    296000   0.99820786     19.082819      103.6698     
    297000   1.0096668      18.852313      103.5482     
    298000   0.99003643     18.574419      103.38409    
    299000   0.99789793     18.870359      103.18572    
    300000   1.0376777      18.92318       103.16251    
    301000   0.99016319     18.659611      103.15857    
    302000   1.0234388      18.655764      103.27242    
    303000   1.0019116      18.615745      102.96119    
    304000   1.0450389      18.541691      102.70301    
    305000   0.98027543     18.850993      102.31166    
    306000   0.98053394     18.557817      102.07488    
    307000   0.97827086     19.143746      101.95025    
    308000   0.9955823      18.418307      101.76303    
    309000   0.97840575     18.842024      101.50748    
    310000   0.95663906     18.359119      101.38304    
    311000   1.0027713      18.699841      101.47027    
    312000   1.0602086      19.39108       101.42751    
    313000   0.972575       18.793424      101.26093    
    314000   1.0083499      18.860564      101.18512    
    315000   1.0000003      19.452175      101.35932    
    316000   1.0419562      18.733055      101.24061    
    317000   0.99755838     18.894766      101.30591    
    318000   0.97760454     19.287139      101.24846    
    319000   0.99146692     18.82331       101.05113    
    320000   1.019258       19.313938      100.79838    
    321000   0.98592877     19.218044      100.86168    
    322000   0.98022102     18.672422      100.76869    
    323000   1.0341492      19.331801      100.52466    
    324000   1.0012569      18.646114      100.38709    
    325000   0.99072103     18.668843      100.31269    
    326000   1.0246784      18.758642      100.36504    
    327000   1.0258159      18.92231       100.29288    
    328000   0.94874234     19.039009      99.998156    
    329000   1.0415873      19.018971      100.08303    
    330000   1.0148877      19.022968      99.751401    
    331000   0.97597567     18.717668      99.620304    
    332000   0.95953133     18.419043      99.282835    
    333000   1.0012351      18.454243      99.271087    
    334000   1.0092375      19.064412      99.164991    
    335000   1.0318405      18.79682       99.08903     
    336000   0.9891179      19.148058      98.823892    
    337000   1.0241063      18.84208       98.691282    
    338000   1.0400495      18.611767      98.658525    
    339000   0.97244391     18.183795      98.63041     
    340000   1.0076032      18.795185      98.400651    
    341000   1.0191035      19.452099      98.10612     
    342000   0.98083808     18.914569      97.982555    
    343000   1.0366236      18.650856      97.684283    
    344000   1.0383447      18.822291      97.744617    
    345000   1.0230794      19.072657      97.752943    
    346000   0.9605964      18.640882      97.697121    
    347000   0.98540039     18.505883      97.571852    
    348000   0.97151483     18.735097      97.590612    
    349000   0.97306192     18.336455      97.50032     
    350000   1.0522075      18.949986      97.311254    
    351000   1.0034013      19.843586      97.056774    
    352000   0.99448098     19.11431       96.804652    
    353000   0.96133573     18.672142      96.69687     
    354000   1.0227901      19.073291      96.675335    
    355000   0.989622       18.821328      96.555211    
    356000   0.98853712     18.813876      96.108359    
    357000   1.0117765      18.485548      96.088066    
    358000   1.0485715      19.051883      95.848876    
    359000   1.04161        18.797884      95.95432     
    360000   1.0290327      18.554128      95.793189    
    361000   1.0546167      18.990063      95.50864     
    362000   1.0327269      19.018237      95.412153    
    363000   1.0181988      19.296868      95.198676    
    364000   0.99581832     18.979016      95.035043    
    365000   1.0318731      19.42222       94.768886    
    366000   0.99806874     19.133224      94.855657    
    367000   1.0184398      19.362032      94.749813    
    368000   0.93917737     18.476703      94.606304    
    369000   1.0217486      18.92723       94.5902      
    370000   1.0920135      18.75251       94.560392    
    371000   1.006012       18.924994      94.482971    
    372000   1.0143776      18.529562      94.338529    
    373000   0.9590898      18.804417      94.359153    
    374000   1.0199688      19.013281      94.238495    
    375000   1.0134753      19.118682      94.22749     
    376000   1.0228984      18.603361      94.293888    
    377000   1.0190897      18.721395      94.100135    
    378000   1.0321141      18.892338      94.045257    
    379000   1.0047292      19.394336      93.981895    
    380000   1.0027871      18.913567      93.831343    
    381000   0.9824506      18.560849      93.741684    
    382000   1.0111121      19.197769      93.775679    
    383000   0.97723967     18.619863      93.273475    
    384000   0.98499572     19.13833       92.968125    
    385000   1.0000543      18.591376      93.004564    
    386000   1.0256821      17.928705      92.985658    
    387000   0.95777171     18.833495      92.948167    
    388000   1.032796       18.532612      92.637595    
    389000   0.99041394     18.171852      92.522718    
    390000   1.0290825      19.506743      92.57162     
    391000   1.0493647      18.834863      92.734403    
    392000   1.0165949      19.095185      92.904075    
    393000   1.0356216      18.903323      93.064109    
    394000   0.97936235     17.805897      92.55987     
    395000   1.0206596      18.48581       92.344415    
    396000   1.0029392      18.493098      92.282576    
    397000   0.96031283     18.975517      92.277942    
    398000   1.0293231      19.009757      92.135187    
    399000   0.97589605     18.950723      92.028204    
    400000   0.96879347     18.318658      91.946934    
    401000   0.98884326     18.657201      91.719566    
    402000   0.95123266     18.340609      91.367167    
    403000   1.0102791      18.350017      91.304932    
    404000   1.0675078      18.64265       91.220436    
    405000   0.98685994     18.660707      91.406757    
    406000   0.9907799      18.474484      91.534489    
    407000   0.99953032     18.608435      91.399806    
    408000   1.0051684      18.995909      90.949577    
    409000   1.0097793      18.690803      90.722659    
    410000   1.0149569      18.404749      90.569591    
    411000   1.0330133      18.558709      90.43242     
    412000   0.9797626      18.206487      90.441265    
    413000   0.96839456     18.602543      90.459989    
    414000   1.0035523      18.48529       90.148138    
    415000   1.016487       17.97602       90.16394     
    416000   0.99443085     18.589444      89.98772     
    417000   1.0325385      19.082514      90.022355    
    418000   0.96130958     18.613684      90.006447    
    419000   0.9442678      19.34339       89.810302    
    420000   1.0122806      18.849663      89.748923    
    421000   0.9817787      18.595146      89.505936    
    422000   1.0113049      18.405844      89.562296    
    423000   1.0322459      19.102861      89.258355    
    424000   0.98921867     18.747616      89.14408     
    425000   1.0187838      18.905396      89.192242    
    426000   1.069118       18.991044      89.1403      
    427000   1.0479824      18.82222       88.879911    
    428000   1.0241754      19.163067      88.970053    
    429000   1.0363541      18.113855      88.637816    
    430000   1.0463244      17.867373      88.376845    
    431000   1.0018097      18.956897      88.30786     
    432000   0.98968013     18.481064      88.372704    
    433000   1.0625188      18.368203      88.256305    
    434000   1.0081474      18.252779      88.016582    
    435000   1.0005455      18.531503      88.014833    
    436000   1.0296292      18.252622      87.927243    
    437000   0.97186668     18.147375      87.921895    
    438000   1.0242957      18.50298       87.741411    
    439000   0.9870589      18.801671      87.532723    
    440000   0.93590062     18.183681      87.168314    
    441000   1.011207       18.792347      86.98973     
    442000   0.97420357     18.362731      86.580657    
    443000   0.99598984     18.499522      86.335412    
    444000   1.0492901      18.552524      86.437813    
    445000   0.97077317     18.760217      86.166394    
    446000   1.0038247      18.233423      86.080405    
    447000   0.99319494     19.147858      85.833775    
    448000   0.96919339     18.458165      85.814439    
    449000   1.0185509      18.26683       85.714246    
    450000   0.96613729     18.886682      85.601621    
    451000   0.98549314     18.542439      85.410488    
    452000   1.0287889      18.576729      85.062512    
    453000   1.0113169      18.272798      84.747079    
    454000   1.0049869      18.173163      84.584826    
    455000   0.96543966     18.888446      84.409628    
    456000   1.0292037      18.836399      84.238445    
    457000   0.98773652     18.601885      83.856794    
    458000   0.97696276     18.596708      83.585171    
    459000   0.96464571     18.151239      83.735982    
    460000   1.0399468      18.894039      83.572471    
    461000   1.0172481      18.849078      83.387672    
    462000   0.97236121     17.908332      83.170692    
    463000   0.986197       18.984808      83.099534    
    464000   0.98192383     18.713821      82.763078    
    465000   1.0096755      18.40843       82.792181    
    466000   1.0236565      18.069197      82.566884    
    467000   0.99409254     17.679382      82.364226    
    468000   1.0230698      18.451716      82.159093    
    469000   1.0083967      18.50836       82.069355    
    470000   1.0014942      19.025225      81.8154      
    471000   0.98974304     18.787837      81.741918    
    472000   1.0201307      18.328105      81.4716      
    473000   0.99426222     18.862471      81.315154    
    474000   1.026798       18.290683      81.14001     
    475000   0.99782618     18.414053      80.941334    
    476000   0.9840588      18.30819       80.795874    
    477000   0.98581344     18.730418      80.74103     
    478000   1.0175315      18.577965      80.659279    
    479000   0.95323326     17.825343      80.467418    
    480000   0.9977422      18.328198      80.27338     
    481000   0.97994999     18.696875      80.091394    
    482000   0.98431351     18.493765      80.215697    
    483000   0.99601769     18.556418      80.014134    
    484000   0.98741708     18.42485       80.030965    
    485000   1.0028356      18.850868      79.946759    
    486000   0.97892093     18.389045      79.547522    
    487000   1.0485699      18.177716      79.481718    
    488000   0.99770152     18.901487      79.498553    
    489000   1.0114227      18.719708      79.290347    
    490000   0.97839795     18.140634      79.46021     
    491000   0.9751816      17.970358      79.491795    
    492000   0.9920172      18.352512      79.405404    
    493000   0.99246927     18.569144      79.371946    
    494000   0.99641454     18.783968      79.116736    
    495000   1.0595172      18.712815      79.114588    
    496000   1.0116685      18.40213       78.985223    
    497000   0.99185082     18.334884      78.971272    
    498000   1.018971       18.253198      78.857937    
    499000   0.97547752     18.055948      78.817035    
    500000   0.95820186     17.973453      78.530148    
    501000   1.0091671      18.608219      78.410855    
    502000   0.99326856     19.029773      78.219915    
    503000   0.9714097      17.978401      77.921286    
    504000   0.98087692     18.464551      77.872495    
    505000   0.96726756     18.417008      77.759728    
    506000   0.99159515     18.956692      77.543237    
    507000   1.0298817      18.30362       77.352475    
    508000   0.9718093      18.152554      77.267431    
    509000   1.0049373      18.533623      77.468788    
    510000   1.0253003      17.517544      77.464396    
    511000   1.0048368      18.67469       77.252491    
    512000   0.98971597     17.786767      77.161661    
    513000   0.99240247     18.074537      77.084717    
    514000   1.0208846      18.227773      76.937355    
    515000   0.97426902     17.806149      76.780809    
    516000   1.0203299      18.587748      76.720362    
    517000   0.97489229     18.773321      76.509376    
    518000   0.98128423     18.478024      76.68812     
    519000   1.0480507      17.71985       76.427242    
    520000   0.98943788     18.095724      76.128001    
    521000   1.003638       18.45079       75.939142    
    522000   1.0068062      18.912448      75.698562    
    523000   1.0113878      18.825057      75.470416    
    524000   1.0022563      18.09044       75.500276    
    525000   0.99302667     19.010749      75.222499    
    526000   0.96422387     18.407844      75.177518    
    527000   0.9743332      18.596076      75.390922    
    528000   1.0373407      18.595604      75.322578    
    529000   1.0046408      18.40632       75.207668    
    530000   1.021536       18.725501      75.102183    
    531000   0.97708876     18.552454      74.914766    
    532000   1.0152684      18.352562      74.914322    
    533000   0.96885788     18.108636      74.692278    
    534000   1.0334694      19.121724      74.655037    
    535000   0.92600633     18.277641      74.165647    
    536000   1.0146371      18.647885      74.058877    
    537000   1.02815        18.566582      73.977272    
    538000   1.0307205      17.939246      73.937783    
    539000   1.0061547      18.228748      73.586438    
    540000   1.0213773      18.393388      73.45366     
    541000   0.9810395      18.079957      73.476247    
    542000   0.99619041     18.762011      73.366024    
    543000   0.99178588     19.26113       73.424102    
    544000   1.015396       18.617002      73.314979    
    545000   0.99513474     18.706174      73.147025    
    546000   0.96988606     18.465929      73.111435    
    547000   1.0083222      18.599861      73.059999    
    548000   1.0356654      18.782057      73.09121     
    549000   1.0198529      18.720074      72.988083    
    550000   0.98591716     18.033866      73.059363    
    551000   0.95793301     18.298481      73.111242    
    552000   0.91844796     18.679745      72.952908    
    553000   0.9794001      18.17718       72.699895    
    554000   1.0355274      18.490641      72.46921     
    555000   0.98256923     17.600801      72.465879    
    556000   0.97273888     17.301189      72.13234     
    557000   0.9457309      18.196166      71.990533    
    558000   0.94729103     17.947895      71.608485    
    559000   1.0131851      18.589872      71.529572    
    560000   0.97127261     18.491112      71.234933    
    561000   1.0318296      18.904468      71.04634     
    562000   0.97768598     18.775047      70.695847    
    563000   0.94015793     18.603609      70.613452    
    564000   0.98539532     18.079158      70.399141    
    565000   0.99761534     18.729966      70.118996    
    566000   1.0118006      18.231298      69.862946    
    567000   0.96308491     18.446075      69.977779    
    568000   1.0195584      18.084461      69.864714    
    569000   0.97943989     18.700214      70.013107    
    570000   1.0084524      18.431303      69.804936    
    571000   0.99867878     18.585974      69.742283    
    572000   0.99084458     18.125731      69.696721    
    573000   1.0337289      17.848966      69.834288    
    574000   0.96664693     18.674855      69.855106    
    575000   0.97186391     17.922281      69.478018    
    576000   1.0077502      17.952086      69.37403     
    577000   1.025159       18.50645       69.343202    
    578000   1.0270271      18.805803      69.344056    
    579000   0.97832655     18.109341      68.979728    
    580000   0.98281955     17.634975      68.699823    
    581000   0.97939761     18.319786      68.678279    
    582000   1.0409818      18.386068      68.701255    
    583000   1.0425513      19.036204      68.620995    
    584000   1.027998       18.94545       68.327273    
    585000   0.99051699     18.535719      68.543994    
    586000   0.96895214     18.483287      68.575053    
    587000   0.99212201     18.791601      68.130676    
    588000   1.0048927      18.44125       68.163659    
    589000   1.0471355      18.536343      68.109364    
    590000   1.0077403      18.349347      68.146399    
    591000   0.98290297     18.357733      68.040242    
    592000   0.99899825     18.366232      68.045207    
    593000   1.0243597      18.39201       67.852928    
    594000   0.99412134     17.894855      67.549145    
    595000   0.98153647     18.187651      67.224777    
    596000   1.0167959      18.373168      67.090747    
    597000   0.97715104     18.135485      67.207045    
    598000   1.0011735      18.448166      67.127802    
    599000   0.98375651     18.1357        67.051278    
    600000   0.97666952     18.10672       66.934697    
    601000   0.98238244     18.324598      66.978703    
    602000   0.99703437     17.805653      66.766542    
    603000   1.0112391      18.404487      66.606265    
    604000   1.0174784      18.234192      66.618484    
    605000   0.9888253      18.557283      66.589818    
    606000   1.002276       18.059881      66.288473    
    607000   1.0445661      18.213756      66.097947    
    608000   1.067176       18.300413      65.85505     
    609000   1.013871       18.343946      65.628922    
    610000   1.0258218      17.763812      65.692444    
    611000   1.0221957      17.959766      65.806625    
    612000   0.97584549     18.426838      65.799489    
    613000   1.0109928      18.159875      65.601536    
    614000   0.97399143     17.989082      65.446424    
    615000   1.0291823      18.641063      65.63996     
    616000   0.97824301     18.335865      65.422144    
    617000   0.97652728     18.551205      65.183206    
    618000   0.98724016     18.95245       65.063786    
    619000   1.0073185      18.219189      64.823861    
    620000   1.0066532      18.465938      64.664822    
    621000   0.99931206     17.659454      64.508126    
    622000   0.99516135     18.07634       64.576194    
    623000   0.96905488     18.285946      64.605812    
    624000   0.97993961     18.784664      64.335474    
    625000   0.97620761     18.137531      64.207063    
    626000   1.0260725      18.59911       64.216272    
    627000   0.98837126     18.64385       64.163527    
    628000   0.99318725     18.233725      64.091396    
    629000   1.0033032      17.63241       64.005219    
    630000   1.027868       18.111331      63.719006    
    631000   0.99028617     18.708775      63.574521    
    632000   1.016152       18.286894      63.442108    
    633000   1.0516209      18.635708      63.306309    
    634000   1.0052069      17.926973      63.188635    
    635000   0.9818407      18.287352      62.960962    
    636000   0.99001966     18.114941      62.953907    
    637000   1.0088062      17.897289      62.771603    
    638000   0.98137729     18.276914      62.5537      
    639000   0.97234458     17.878899      62.312603    
    640000   1.0238919      18.454354      62.159455    
    641000   1.0369912      18.117361      62.000999    
    642000   0.98365664     18.484409      61.986829    
    643000   1.0039524      18.32469       61.880343    
    644000   0.977209       18.095685      61.71805     
    645000   1.0109758      18.793154      61.352659    
    646000   0.97859545     18.380549      61.294542    
    647000   0.96380089     17.551515      61.394529    
    648000   0.98115243     17.847053      61.211967    
    649000   0.9572743      18.113701      61.094377    
    650000   0.9796127      18.404236      61.073756    
    651000   1.0024154      17.962574      60.918428    
    652000   0.99158051     17.725292      60.64344     
    653000   0.99553966     17.509516      60.715112    
    654000   0.99191584     18.127322      60.485503    
    655000   0.97174771     18.355049      60.508987    
    656000   1.0044384      17.817671      60.338354    
    657000   1.017593       18.557444      60.404402    
    658000   1.0160815      17.90211       60.256967    
    659000   1.0352257      18.381494      60.26023     
    660000   1.0246109      18.354246      60.128689    
    661000   0.97799419     17.910439      59.915496    
    662000   1.013313       17.767707      59.732379    
    663000   0.98794768     17.78828       59.55288     
    664000   0.97647956     18.371232      59.310573    
    665000   1.0105336      18.184726      59.061068    
    666000   1.0302545      18.066456      59.293256    
    667000   0.99034299     18.188677      59.175492    
    668000   1.0029435      17.673199      58.971402    
    669000   1.0276101      18.180145      58.647615    
    670000   0.99398271     18.248868      58.707752    
    671000   0.99423827     18.028845      58.513346    
    672000   1.002317       17.79852       58.174836    
    673000   0.99737185     17.847921      58.444894    
    674000   1.0447359      17.945806      58.432665    
    675000   0.99269703     17.686247      58.504996    
    676000   0.94305681     17.697299      58.431682    
    677000   0.99017588     18.122824      58.423099    
    678000   1.0662099      17.984421      58.320347    
    679000   1.0339339      18.082947      58.178637    
    680000   0.99870255     17.845306      57.916964    
    681000   1.0081982      18.268617      57.889409    
    682000   1.0024674      18.52278       57.746502    
    683000   0.99187336     18.404704      57.690959    
    684000   1.0180879      18.062255      57.399608    
    685000   0.98738502     17.831185      57.303299    
    686000   0.99270356     18.317711      57.272506    
    687000   1.0286401      18.491534      57.140415    
    688000   0.97444019     18.121586      57.095795    
    689000   1.036148       18.075757      56.868566    
    690000   0.97489211     17.959755      56.808726    
    691000   0.99139035     18.33313       56.898569    
    692000   1.0309625      17.652803      56.570794    
    693000   1.0270022      18.770507      56.50006     
    694000   1.0346674      18.365777      56.044484    
    695000   0.96020899     17.700452      56.061328    
    696000   1.0239537      18.150454      55.811949    
    697000   1.0281048      18.253053      55.642836    
    698000   1.0351611      18.016253      55.588978    
    699000   0.99378468     17.816334      55.643072    
    700000   1.0186896      18.336177      55.726867    
    701000   0.97176519     17.844533      55.624007    
    702000   0.99942564     17.764307      55.619106    
    703000   0.9578502      17.694723      55.52017     
    704000   0.98891341     18.253156      55.64        
    705000   1.0058225      17.840144      55.498207    
    706000   0.96171191     17.935193      55.317291    
    707000   0.98169717     17.617297      55.021546    
    708000   0.98818675     17.662428      55.045056    
    709000   1.0526382      18.249435      55.035201    
    710000   1.0187246      17.977511      54.860523    
    711000   0.99672344     18.218743      54.734605    
    712000   1.0685157      18.328539      54.738409    
    713000   0.97643779     17.922398      54.854623    
    714000   0.99179559     17.24502       54.789862    
    715000   0.97769432     18.05895       54.583698    
    716000   1.0158013      17.821267      54.612455    
    717000   1.0005057      17.322656      54.690091    
    718000   0.97722614     17.532106      54.398604    
    719000   1.0217186      17.570724      54.429494    
    720000   1.0399799      17.861269      54.295579    
    721000   1.0719782      18.26672       54.332366    
    722000   1.0006085      18.025766      54.146424    
    723000   1.0604517      18.002813      53.894826    
    724000   0.95412881     17.755327      53.858533    
    725000   0.96717931     17.737161      53.780769    
    726000   1.0167393      18.280821      53.745147    
    727000   0.98250441     17.212825      53.778226    
    728000   1.0254271      18.170096      53.633599    
    729000   1.0033481      17.974911      53.57799     
    730000   0.98013205     18.321067      53.493311    
    731000   1.0311902      18.040881      53.487667    
    732000   0.9930382      17.917513      53.235162    
    733000   0.99293277     18.146735      53.234184    
    734000   1.0020862      17.642006      53.045591    
    735000   0.98886972     17.678232      52.893962    
    736000   1.0288027      17.870137      52.898665    
    737000   0.9701151      17.686204      52.421134    
    738000   0.95121863     17.800507      52.030532    
    739000   1.0184139      18.194356      51.910929    
    740000   0.98104113     17.94097       51.814289    
    741000   1.0198292      17.739169      51.648446    
    742000   1.0001746      17.974473      51.389843    
    743000   0.99725622     18.037502      51.231773    
    744000   1.0026518      18.36569       50.838548    
    745000   1.0246484      17.7697        50.731255    
    746000   0.95580943     17.07083       50.265331    
    747000   0.99710765     17.875305      50.019845    
    748000   1.0028972      17.334479      50.07019     
    749000   1.0211891      17.953704      50.260148    
    750000   0.97932899     18.759612      50.037335    
    751000   1.0693269      17.810206      49.937005    
    752000   1.0106338      17.814643      49.609931    
    753000   1.0132754      16.827488      49.794417    
    754000   0.98031618     18.369933      49.76389     
    755000   1.0055055      18.108721      49.43511     
    756000   1.0222256      17.468221      49.354776    
    757000   1.0140599      17.956459      49.253971    
    758000   0.96729379     17.518002      49.316335    
    759000   1.0040477      17.652365      49.14202     
    760000   1.014787       17.712131      49.06926     
    761000   1.0146792      18.536084      49.112157    
    762000   1.0161685      17.572329      49.179541    
    763000   0.99505945     18.208568      49.193202    
    764000   0.9901377      18.059793      49.114601    
    765000   1.0018115      17.85432       49.023566    
    766000   1.0066876      17.962098      48.883871    
    767000   1.0286767      18.002768      48.82481     
    768000   0.97796039     18.071328      48.700759    
    769000   0.94826008     17.897367      48.653381    
    770000   0.96419933     17.733815      48.509766    
    771000   0.98276537     17.9856        48.490846    
    772000   0.9603383      17.54742       48.509161    
    773000   0.99031519     17.541056      48.287691    
    774000   0.99698683     17.939313      48.131342    
    775000   1.0130923      17.891214      47.933905    
    776000   0.95301239     17.597361      47.995375    
    777000   0.96481214     17.949544      47.655777    
    778000   0.9898125      17.797827      47.748699    
    779000   0.9898515      18.240063      47.845963    
    780000   1.017581       18.045649      47.76511     
    781000   0.99574522     17.668713      47.771894    
    782000   1.0047676      17.634846      47.636713    
    783000   1.0250925      17.900908      47.709698    
    784000   1.0090648      18.086131      47.73295     
    785000   0.98546382     18.105374      47.780925    
    786000   1.0026661      18.578837      47.50279     
    787000   1.0113866      17.651926      47.077278    
    788000   0.99474909     17.365558      46.894622    
    789000   1.0145358      17.647693      46.789508    
    790000   1.0491051      17.010476      47.137423    
    791000   0.99496497     17.341643      47.051547    
    792000   0.9772222      17.728037      46.892455    
    793000   1.0097612      17.839512      46.966973    
    794000   1.0261813      18.339323      46.865865    
    795000   0.9969776      18.03915       46.749405    
    796000   0.98129008     17.616634      46.827212    
    797000   0.96460905     18.002134      46.595241    
    798000   1.0140521      18.191099      46.292667    
    799000   1.0461         17.546934      46.279914    
    800000   1.0328824      17.489218      46.249095    
    801000   1.0112298      18.072193      45.927783    
    802000   0.99035342     17.745963      46.066303    
    803000   1.0069165      17.429879      45.975473    
    804000   1.0322349      18.516173      45.80895     
    805000   0.97387904     17.448335      45.584792    
    806000   1.0056186      18.012511      45.291715    
    807000   0.97494265     18.138895      45.068962    
    808000   0.98101281     18.184169      44.826062    
    809000   0.99117752     17.111133      44.715675    
    810000   1.0356846      17.856312      44.526955    
    811000   1.0193956      17.772547      44.508929    
    812000   1.025679       17.70038       44.606825    
    813000   0.97423064     17.850804      44.510396    
    814000   1.0070504      17.971481      44.680554    
    815000   0.99848338     17.595567      44.654544    
    816000   1.0408261      17.701815      44.543025    
    817000   0.96242463     17.307886      44.41715     
    818000   0.95507096     17.278664      44.319029    
    819000   1.0290569      17.895873      44.428003    
    820000   1.0101746      19.089435      44.149813    
    821000   0.98773584     18.046003      44.093737    
    822000   0.98644265     17.764463      44.058602    
    823000   0.97367039     17.361909      44.212383    
    824000   1.028167       18.187172      44.454627    
    825000   1.0106415      17.88178       44.482046    
    826000   1.0101139      17.832689      44.31261     
    827000   1.0227439      18.230145      44.457952    
    828000   0.98328273     17.418866      44.259254    
    829000   1.0041221      17.50387       44.155426    
    830000   0.99932911     17.218324      44.142986    
    831000   1.0016059      17.262831      43.966317    
    832000   0.97613641     17.927531      43.636695    
    833000   1.0165767      17.656407      43.576192    
    834000   1.0163778      17.586532      43.571414    
    835000   1.0285689      17.965617      43.37253     
    836000   0.98801715     17.83602       43.295059    
    837000   0.96210267     17.738149      43.3522      
    838000   0.99766671     17.915867      43.354057    
    839000   0.99522775     17.872204      43.330398    
    840000   0.9884159      18.324429      43.34396     
    841000   0.99284448     18.241365      43.147346    
    842000   1.0233317      18.200057      43.299509    
    843000   1.0070501      17.672129      43.212246    
    844000   1.0157325      17.894398      43.19806     
    845000   1.0273371      18.505333      43.144901    
    846000   1.0173486      17.499092      43.082937    
    847000   1.0022358      17.812312      42.89103     
    848000   0.9681971      17.435138      42.832016    
    849000   1.0241466      17.815805      42.949241    
    850000   1.0538354      17.851148      42.899337    
    851000   1.0208391      17.946959      42.705008    
    852000   1.0127221      17.864249      42.473301    
    853000   1.0606203      18.698065      42.292243    
    854000   0.99845644     18.39827       42.227857    
    855000   0.97187794     17.934734      42.314209    
    856000   1.0162001      17.360816      42.22567     
    857000   1.0041062      18.180376      42.132348    
    858000   0.99642104     17.890233      42.099744    
    859000   0.99922026     18.213877      41.992581    
    860000   0.96858007     17.755377      41.992414    
    861000   0.99651629     17.484477      41.85867     
    862000   0.99543499     17.601816      41.709592    
    863000   0.94048974     17.579436      41.487772    
    864000   0.98481483     17.656332      41.559671    
    865000   1.0036519      17.434433      41.553023    
    866000   1.0128837      17.191697      41.37958     
    867000   0.9860059      17.835645      41.290562    
    868000   1.0114497      18.383818      41.175357    
    869000   1.0520737      17.993213      41.07145     
    870000   1.0357669      18.093133      40.980193    
    871000   1.0418688      17.394917      40.971863    
    872000   1.0415059      18.672545      40.729844    
    873000   0.98191665     17.979309      40.726034    
    874000   1.0489056      17.934735      40.736682    
    875000   1.0259355      18.094702      40.778579    
    876000   0.97589614     18.066488      40.736154    
    877000   1.0353649      18.405219      40.692925    
    878000   1.0109708      18.356354      40.59461     
    879000   1.0463644      18.017171      40.386049    
    880000   1.0256682      17.793676      40.142716    
    881000   1.0152834      17.735834      40.004409    
    882000   1.0158906      17.961465      40.005051    
    883000   1.0309045      17.71626       39.793778    
    884000   1.034457       18.255595      39.569344    
    885000   0.9726096      18.070206      39.477791    
    886000   1.0055699      18.006857      39.37479     
    887000   1.0563156      17.976236      39.147263    
    888000   1.0195081      18.137061      39.042567    
    889000   0.99628075     18.271281      39.071717    
    890000   0.97972353     17.270666      38.900369    
    891000   1.0331111      17.821737      38.585784    
    892000   1.0441899      17.906668      38.591819    
    893000   0.99532654     17.703215      38.446409    
    894000   0.99939472     18.210771      38.237916    
    895000   1.0014517      18.056528      38.262289    
    896000   1.0457196      18.251504      38.25341     
    897000   1.0083644      17.777639      38.163363    
    898000   1.0098203      17.622547      38.250645    
    899000   0.96835408     17.743811      38.42266     
    900000   0.97894904     17.504667      38.229562    
    901000   1.0094784      17.918757      38.207301    
    902000   1.0394816      17.857773      38.156181    
    903000   0.96800462     17.468614      38.04532     
    904000   1.0205511      17.663154      37.942803    
    905000   1.0417748      17.781818      37.693868    
    906000   0.95546969     18.317303      37.522854    
    907000   0.99957025     17.742248      37.362438    
    908000   0.99197459     18.406932      37.472522    
    909000   1.047851       17.678198      37.262394    
    910000   0.93649512     17.63245       36.952403    
    911000   1.0053809      17.880507      36.795341    
    912000   1.0014258      17.716475      36.826683    
    913000   1.0133587      18.033787      36.843732    
    914000   1.0140025      17.909017      36.799014    
    915000   0.97389903     17.636228      36.556111    
    916000   0.99404282     17.303112      36.607241    
    917000   0.97225663     17.783899      36.359522    
    918000   1.0073044      17.971784      36.393471    
    919000   1.0419966      17.725577      36.155574    
    920000   0.99896743     17.584027      36.047687    
    921000   0.99581363     18.005039      36.014291    
    922000   1.0093298      17.65869       36.043995    
    923000   0.97407137     17.348425      35.961201    
    924000   1.0627776      17.943868      35.833192    
    925000   1.005122       17.397943      35.862156    
    926000   1.011752       17.780764      35.731515    
    927000   0.97049798     17.734745      35.630226    
    928000   0.98898388     17.964906      35.380386    
    929000   0.96357556     17.421871      35.330601    
    930000   1.0226765      17.108104      35.260445    
    931000   1.0097988      18.275369      34.977014    
    932000   1.0209453      17.623007      34.847388    
    933000   1.0082364      17.941568      34.623415    
    934000   1.0194725      18.395888      34.599234    
    935000   0.93518104     17.449703      34.549518    
    936000   1.0419971      17.813505      34.174262    
    937000   0.99700157     17.328262      33.9659      
    938000   1.0113377      17.59432       33.879044    
    939000   0.98251359     18.174089      33.785824    
    940000   0.95642695     18.035966      33.842042    
    941000   1.0253026      18.362537      33.754115    
    942000   0.99345079     17.274074      33.778033    
    943000   0.99390469     17.696996      33.566336    
    944000   1.0315211      18.368482      33.65893     
    945000   1.0152916      17.768084      33.614639    
    946000   0.95876699     17.560203      33.732896    
    947000   1.0247961      17.961828      33.604456    
    948000   0.98975268     17.846444      33.515846    
    949000   0.92888667     17.864115      33.408434    
    950000   1.0061776      18.119894      33.341796    
    951000   1.0224168      17.398388      33.25687     
    952000   0.99126093     17.782033      33.229099    
    953000   1.0103451      17.91332       32.979347    
    954000   0.98391312     17.934004      32.792241    
    955000   0.89875816     17.977571      32.563403    
    956000   1.0089854      17.837522      32.193066    
    957000   0.97466072     17.59111       32.00929     
    958000   1.0326362      17.827846      31.761289    
    959000   0.99432848     17.829697      31.640725    
    960000   0.9836038      18.013426      31.646601    
    961000   0.99413352     17.126451      31.692104    
    962000   1.0109848      17.61625       31.726848    
    963000   1.0448498      17.70994       31.659348    
    964000   1.0054584      18.287392      31.520637    
    965000   1.0102613      17.284372      31.244784    
    966000   0.94973467     17.339836      30.788579    
    967000   1.0028739      17.60112       30.734283    
    968000   0.97377386     17.512006      30.758963    
    969000   1.0331217      17.839226      30.669478    
    970000   1.0114583      18.169366      30.458809    
    971000   1.0456943      17.379079      30.341409    
    972000   1.0268034      18.09343       30.294118    
    973000   1.0128188      18.160209      30.257734    
    974000   1.0362569      17.937425      30.230847    
    975000   0.93618305     17.679627      30.423573    
    976000   0.95798635     17.262522      30.268868    
    977000   1.03749        18.039454      30.310862    
    978000   0.95263583     17.806421      30.353864    
    979000   1.0485819      17.478334      30.14184     
    980000   1.0042642      17.400179      29.874474    
    981000   1.0208824      17.734942      29.746765    
    982000   0.98473866     17.914667      29.594107    
    983000   0.986641       17.636979      29.520829    
    984000   1.0126264      18.314358      29.173043    
    985000   1.0120273      17.308455      28.721798    
    986000   0.98024902     17.409817      28.420769    
    987000   1.0618651      17.999041      28.265478    
    988000   0.99136715     17.721334      28.145772    
    989000   1.0085202      17.529254      28.127675    
    990000   1.0176077      18.147538      28.092051    
    991000   1.0071685      17.546332      27.743065    
    992000   0.97862633     17.597406      27.51217     
    993000   0.94114546     17.179613      27.433516    
    994000   0.96617375     17.443731      27.170903    
    995000   0.98344023     17.928189      26.819957    
    996000   1.0156545      18.301069      26.641176    
    997000   1.0436168      17.752349      26.614778    
    998000   1.0246753      18.254266      26.281388    
    999000   1.0047748      17.79595       26.089827    
   1000000   1.0062332      17.523683      26.274105    
   1001000   0.97249884     17.486853      26.125165    
   1002000   1.0036277      17.50443       26.094072    
   1003000   1.0050008      17.722884      25.877866    
   1004000   0.97896183     17.941776      25.791912    
   1005000   0.99593343     18.017482      25.448752    
   1006000   0.93571871     17.956121      25.289163    
   1007000   1.0236114      17.337043      25.242263    
   1008000   0.99244771     18.263063      25.100285    
   1009000   0.97300722     16.873982      25.026579    
   1010000   0.99972861     17.75492       24.956468    
   1011000   0.95909033     17.472296      24.85994     
   1012000   1.0224407      17.646886      24.735657    
   1013000   0.9634823      16.950664      24.61866     
   1014000   0.97951609     18.24863       24.666242    
   1015000   1.0481963      17.12525       24.693787    
   1016000   1.0028971      16.875828      24.572084    
   1017000   0.99714569     17.89442       24.524227    
   1018000   0.99347127     17.119233      24.457397    
   1019000   0.99850376     17.711641      24.461466    
   1020000   1.0174528      17.600767      24.458692    
   1021000   0.97727932     17.116799      24.366184    
   1022000   0.98850235     17.186029      24.271038    
   1023000   1.0070234      17.28443       24.246519    
   1024000   1.0272603      18.034603      24.239214    
   1025000   1.0021556      17.803693      23.980528    
   1026000   0.98128246     17.602229      23.594556    
   1027000   0.96164726     17.034282      23.540854    
   1028000   0.9751087      17.219582      23.451986    
   1029000   0.99621467     17.879075      23.17261     
   1030000   0.97181151     17.331471      23.055748    
   1031000   1.0039736      17.22263       23.016087    
   1032000   0.98306367     17.829686      22.690585    
   1033000   0.98829437     17.33104       22.39769     
   1034000   1.0101808      17.617166      22.227591    
   1035000   1.0507799      17.184364      22.201438    
   1036000   0.98950988     17.74348       21.786429    
   1037000   1.0213279      17.32353       21.523157    
   1038000   0.9785741      17.201284      21.539055    
   1039000   1.0595597      17.435934      21.300304    
   1040000   0.98697298     17.553014      21.125901    
   1041000   1.0322564      17.528245      20.96989     
   1042000   0.98890245     17.672198      20.76237     
   1043000   1.0138491      17.806228      20.687221    
   1044000   0.98544605     16.90747       20.708016    
   1045000   0.96493532     18.064835      20.576995    
   1046000   1.011788       16.593943      20.573607    
   1047000   0.99466542     17.491045      20.40262     
   1048000   0.97621615     18.039027      20.356209    
   1049000   0.96606765     17.213158      20.464744    
   1050000   1.0153379      17.56839       20.317365    
   1051000   0.98823192     17.500546      20.172249    
   1052000   0.9924029      17.502592      20.094307    
   1053000   0.98990967     17.586011      19.835721    
   1054000   0.98371714     17.441256      19.682397    
   1055000   1.0022161      17.88963       19.682418    
   1056000   0.97590888     17.370963      19.715218    
   1057000   1.0016424      17.096148      19.550037    
   1058000   0.99183496     17.211261      19.71911     
   1059000   0.99999695     17.692139      19.428597    
   1060000   1.0378952      17.919219      19.206788    
   1061000   1.0031699      17.428047      18.983913    
   1062000   0.97949667     16.962008      18.974431    
   1063000   1.0101115      17.213509      18.872261    
   1064000   0.96785268     17.07527       18.649345    
   1065000   1.0101347      17.012606      18.496875    
   1066000   1.0047348      17.638631      18.336289    
   1067000   0.97361703     16.730531      18.105143    
   1068000   0.96353939     17.054229      18.224334    
   1069000   1.0388611      17.916287      18.195519    
   1070000   0.99293469     17.669525      18.256678    
   1071000   1.0178192      17.400891      18.17939     
   1072000   0.98892273     17.930349      18.295906    
   1073000   0.94228558     16.90175       18.041369    
   1074000   1.0286505      17.951774      18.090531    
   1075000   1.0593637      18.088213      17.830916    
   1076000   1.0334031      17.492232      17.768842    
   1077000   0.93021002     17.18158       17.722926    
   1078000   1.0107471      16.83148       17.787483    
   1079000   1.0069365      17.315027      17.543038    
   1080000   0.97466836     17.08206       17.36176     
   1081000   1.0160693      17.016467      17.447165    
   1082000   0.96845548     17.498047      17.459519    
   1083000   0.99509842     17.144512      17.144194    
   1084000   0.98122888     17.59765       17.281512    
   1085000   0.97718946     17.364413      16.89912     
   1086000   1.05009        17.710003      16.869624    
   1087000   0.99232214     17.64756       16.570379    
   1088000   0.99197058     17.442655      16.260274    
   1089000   1.0101196      17.274863      16.149754    
   1090000   0.94187949     17.068505      16.038763    
   1091000   1.0082749      17.675795      15.994042    
   1092000   0.99518554     17.024486      15.902352    
   1093000   0.96535381     17.171083      15.894933    
   1094000   1.0151602      17.305353      15.774803    
   1095000   0.98567626     17.272116      15.563666    
   1096000   0.97619822     17.58398       15.441309    
   1097000   1.0187812      17.532356      15.72271     
   1098000   1.0065622      17.591893      15.525989    
   1099000   1.0294034      17.161529      15.489086    
   1100000   0.98450442     17.14503       15.369299    
   1101000   1.0213417      17.921174      15.337857    
   1102000   1.0056807      17.852803      15.405102    
   1103000   1.0317772      17.451318      15.176172    
   1104000   0.96464639     17.479567      15.116664    
   1105000   1.0640144      17.633726      15.028487    
   1106000   0.98691782     17.068686      14.862392    
   1107000   0.96239087     17.28984       14.848292    
   1108000   1.0038688      17.0734        14.536935    
   1109000   1.0520656      17.431451      14.22002     
   1110000   0.9660173      17.749324      14.014605    
   1111000   0.99156617     16.996103      13.860043    
   1112000   0.98730578     17.524191      13.800595    
   1113000   0.99436944     17.405768      13.763731    
   1114000   1.0117296      17.616722      13.595245    
   1115000   0.98169346     17.589543      13.487037    
   1116000   1.013488       17.866741      13.280571    
   1117000   1.0333245      16.889324      13.026457    
   1118000   1.0087109      17.687175      12.816328    
   1119000   0.98195321     17.935893      12.807434    
   1120000   1.0241773      17.339684      12.628906    
   1121000   0.99668544     17.510462      12.656203    
   1122000   1.0214524      17.43401       12.455265    
   1123000   1.0277075      17.538673      12.41596     
   1124000   0.98175203     16.977533      12.369325    
   1125000   1.0032161      17.292957      12.078654    
   1126000   1.0381936      18.37618       11.858526    
   1127000   0.98993546     17.986503      11.766837    
   1128000   1.0230686      17.714895      11.781287    
   1129000   0.99338681     17.25859       11.65161     
   1130000   0.98902494     17.253756      11.376404    
   1131000   1.0350561      17.080069      11.445276    
   1132000   1.0406646      16.677691      11.445858    
   1133000   0.97814798     17.58159       11.386083    
   1134000   0.98905806     17.097919      11.39597     
   1135000   0.98177493     17.532853      11.040285    
   1136000   0.98177924     17.497396      10.924798    
   1137000   0.98228198     16.959705      10.802238    
   1138000   0.97662368     17.213675      10.410011    
   1139000   1.0218695      17.440947      10.199638    
   1140000   1.0260259      17.170438      10.252951    
   1141000   1.0422846      17.473866      10.234204    
   1142000   0.97314035     17.367368      10.062286    
   1143000   1.0608223      17.282947      9.9242352    
   1144000   1.0295763      17.449979      9.5097782    
   1145000   0.93628107     17.56          9.267824     
   1146000   1.0013114      17.611894      9.1256574    
   1147000   1.0277242      17.417924      8.7857757    
   1148000   1.0038763      17.322702      8.5432766    
   1149000   1.0102758      17.38423       8.4302354    
   1150000   1.0392151      17.234211      8.1991212    
   1151000   1.0180319      17.644961      8.1425492    
   1152000   0.99990614     17.338959      7.9247045    
   1153000   0.95943193     16.942394      7.6988335    
   1154000   0.96936954     17.223601      7.5143535    
   1155000   0.98836015     16.995924      7.4307695    
   1156000   0.9987184      17.729295      7.6277646    
   1157000   1.0022779      17.269658      7.4704755    
   1158000   0.98152279     16.854719      7.4057796    
   1159000   0.97670842     16.925368      7.1432024    
Fix halt condition for fix-id 3 met on step 1160000 with value 6.860520051511012 (src/fix_halt.cpp:237)
   1160000   1.0135864      17.014981      6.8605201    
Loop time of 1540.66 on 2 procs for 1060000 steps with 901 atoms

Performance: 594446.670 tau/day, 688.017 timesteps/s
114.7% CPU use with 1 MPI tasks x 2 OpenMP threads

MPI task timing breakdown:
Section |  min time  |  avg time  |  max time  |%varavg| %total
---------------------------------------------------------------
Pair    | 266.56     | 266.56     | 266.56     |   0.0 | 17.30
Bond    | 26.295     | 26.295     | 26.295     |   0.0 |  1.71
Neigh   | 1182.9     | 1182.9     | 1182.9     |   0.0 | 76.78
Comm    | 0.43748    | 0.43748    | 0.43748    |   0.0 |  0.03
Output  | 3.7396     | 3.7396     | 3.7396     |   0.0 |  0.24
Modify  | 56.754     | 56.754     | 56.754     |   0.0 |  3.68
Other   |            | 3.993      |            |       |  0.26

Nlocal:            901 ave         901 max         901 min
Histogram: 1 0 0 0 0 0 0 0 0 0
Nghost:              0 ave           0 max           0 min
Histogram: 1 0 0 0 0 0 0 0 0 0
Neighs:         179809 ave      179809 max      179809 min
Histogram: 1 0 0 0 0 0 0 0 0 0

Total # of neighbors = 179809
Ave neighs/atom = 199.56604
Ave special neighs/atom = 1.9977802
Neighbor list builds = 10298
Dangerous builds = 0

# This simulation is done
# Move onto the next one
clear
  using 2 OpenMP thread(s) per MPI task
package omp 0
using multi-threaded neighbor list subroutines
next f
jump SELF

###
# Reference paper:
# K. Kremer and G. S. Grest
# Dynamics of entangled linear polymer melts: A molecular-dynamics simulation
# J Chem Phys 92, 5057 (1990)

##################################
# MIHIR: for branched polymers
# LJ minimum first to expand and explore, then collapse
###

###
# Looping through the various N1B3 polymers to simulate,
# define variables to switch through
#variable f index bb66nuc1bl33bn3d30tot100 bb133nuc1bl66bn3d30tot200 bb200nuc1bl100bn3d30tot300 bb266nuc1bl133bn3d30tot400 bb333nuc1bl166bn3d30tot500 bb400nuc1bl200bn3d30tot600 bb466nuc1bl233bn3d30tot700 bb533nuc1bl266bn3d30tot800 bb600nuc1bl300bn3d30tot900 bb666nuc1bl333bn3d30tot1000 bb733nuc1bl366bn3d30tot1100 bb800nuc1bl400bn3d30tot1200
# variable f index bb66nuc1bl33bn3d30tot100V3 bb133nuc1bl66bn3d30tot200V3 bb200nuc1bl100bn3d30tot300V3 bb266nuc1bl133bn3d30tot400V3 bb333nuc1bl166bn3d30tot500V3 bb400nuc1bl200bn3d30tot600V3 bb466nuc1bl233bn3d30tot700V3 bb533nuc1bl266bn3d30tot800V3 bb600nuc1bl300bn3d30tot900V3 bb666nuc1bl333bn3d30tot1000V3 bb733nuc1bl366bn3d30tot1100V3 bb800nuc1bl400bn3d30tot1200V3
variable f index bb66nuc1bl33bn3d30tot100V2 bb133nuc1bl66bn3d30tot200V2 bb200nuc1bl100bn3d30tot300V2 bb266nuc1bl133bn3d30tot400V2 bb333nuc1bl166bn3d30tot500V2 bb400nuc1bl200bn3d30tot600V2 bb466nuc1bl233bn3d30tot700V2 bb533nuc1bl266bn3d30tot800V2 bb600nuc1bl300bn3d30tot900V2 bb666nuc1bl333bn3d30tot1000V2 bb733nuc1bl366bn3d30tot1100V2 bb800nuc1bl400bn3d30tot1200V2
#variable f index bb733nuc1bl366bn3d30tot1100V2 bb800nuc1bl400bn3d30tot1200V2
###


###
# Box and units  (use LJ units and periodic boundaries)
###

units lj
log N1B3/trial2/logs3/$f.log
log N1B3/trial2/logs3/bb666nuc1bl333bn3d30tot1000V2.log
