#atom_style bond #no stiffness
atom_style angle #with stiffness

boundary        p p p
###
# Pair interactions require lists of neighbours to be calculated
###

#neighbor 0.3 bin
neighbor 4 bin

neigh_modify every 1 delay 1 check yes
atom_modify sort 0 0
### Generate RESTART file, SPECIAL format, not a .txt file ###
### Useful if simulation crashes ###

restart 1000000 N1B3/trial2/restarts3/$f.restart
restart 1000000 N1B3/trial2/restarts3/bb666nuc1bl333bn3d30tot1000V2.restart
#############################



### READ "start" data file ###

read_data N1B3/trial2/dats2/$f.dat
read_data N1B3/trial2/dats2/bb666nuc1bl333bn3d30tot1000V2.dat
Reading data file ...
  orthogonal box = (-1000 -1000 -1000) to (1000 1000 1000)
  1 by 1 by 1 MPI processor grid
  reading atoms ...
  1000 atoms
  scanning bonds ...
  2 = max bonds/atom
  scanning angles ...
  3 = max angles/atom
  reading bonds ...
  999 bonds
  reading angles ...
  999 angles
Finding 1-2 1-3 1-4 neighbors ...
  special bond factors lj:    0        0        0       
  special bond factors coul:  0        0        0       
     3 = max # of 1-2 neighbors
     3 = max # of 1-3 neighbors
     6 = max # of 1-4 neighbors
     9 = max # of special neighbors
  special bonds CPU = 0.004 seconds
  read_data CPU = 0.220 seconds

######################

### READ "REstart" data file ###

######################



###
# Define groups (atom type 1 is group 'all')
###
group all type 1
1000 atoms in group all


###
# Dump configs - "simple dumpings"
###

###
# Dump configs + box coords
###

dump   1   all   custom   1000  N1B3/trial2/trjs3/$f.lammpstrj  id  x y z  ix iy iz
dump   1   all   custom   1000  N1B3/trial2/trjs3/bb666nuc1bl333bn3d30tot1000V2.lammpstrj  id  x y z  ix iy iz
dump_modify   1   format line "%d %.5f %.5f %.5f %d %d %d"

########################################################################


###################################################################
# Stiffness term
#
# E = K * (1+cos(theta)), K>0
#
angle_style   cosine
#change this coefficient to change stiffness (e.g. 1,5,10)
angle_coeff   1 1.0
###################################################################

###################################################################
# Pair interaction between non-bonded atoms
#
#  Lennard-Jones 12-6 potential with cutoff:
#  potential E=4epsilon[ (sigma/r)^12 - (sigma/r)^6]  for r<r_cut
#
#  1.12246 = 2^(1/6) is the minimum of the potential


pair_style      lj/cut 1.12246152962189
#pair_style      lj/cut 3

#
#  pair_modify shift yes adds a constant to the potential such

#  that E(r_cut)=0. Forces remains unchanged.
#

pair_modify     shift yes

#
#  pair_coeff for lj/cut, specify 4:
#    * atom type interacting with
#    * atom type
#    * epsilon (energy units)
#    * sigma (distance units)
#

pair_coeff      1 1 1.0 1.0
###################################################################

###################################################################
# Pair interaction between non-bonded atoms
#
#  soft potential, for PUSHING apart overlapping atoms
#  potential E=A*(1 + cos(pi*r/r_c))
#
#  1.12246 = 2^(1/6) is the cut-off r_c

#pair_style     soft 1.12246152962189

#
#  pair_coeff for soft, specify 3:
#    * atom type interacting with
#    * atom type
#    * A
#
#

#pair_coeff      1 1 100.0
###################################################################

###################################################################
# Pair interaction between bonded atoms
#
# Fene potential + Lennard Jones 12-6:

#
#  E= - 0.5 K R0^2 ln[ 1- (r/R0)^2]
#     + 4epsilon[ (sigma/r)^12 - (sigma/r)^6] + epsilon
#

bond_style   fene


#
# For style fene, specify:
#   * bond type
#   * K (energy/distance^2)
#   * R0 (distance)
#   * epsilon (energy)  (LJ component)
#   * sigma (distance)  (LJ component)
#


special_bonds fene #<=== I M P O R T A N T (new command)
Finding 1-2 1-3 1-4 neighbors ...
  special bond factors lj:    0        1        1       
  special bond factors coul:  0        1        1       
     3 = max # of 1-2 neighbors
     9 = max # of special neighbors
  special bonds CPU = 0.001 seconds

bond_coeff   1   30   2   1.0   1.0


###################################################

###################################################################
# Pair interaction between bonded atoms
#
# Harmonic potential:
#
#  E= K * (R-R0)^2
#

#bond_style   harmonic

#
# For style harmonic, specify:
#   * bond type
#   * K (energy/distance^2)
#   * R0 (distance)
#

#bond_coeff   1   60.0   1.0
#bond_coeff   2   harmonic 0.1   1.0

###################################################
compute 1 all gyration
variable rog equal c_1
#compute 2 all coord/atom cutoff 1.1

#dump 2 all custom 10000 contact_number.dump id c_2


###
# Set up fixes
###
thermo_style   custom   step  temp enthalpy c_1
fix 1 all nve   ###NVE ensemble

fix 2 all   langevin   1.0 1.0 1.0  778655   ###Langevin integrator Tstart Tstop 1/friction rndseed


##### Sample thermodynamic info  (temperature, energy, pressure, etc.) #####
thermo 1000









############################################################################

###
# set timestep of integrator

timestep 0.01

###
# run integration for a number of steps
###
#run 0
#variable r equal c_1
#if "$r < 63.1" then "quit 1"

# lj potential minimum, cause molecule to explore
run 100000
Generated 0 of 0 mixed pair_coeff terms from geometric mixing rule
Last active /omp style is angle_style cosine/omp
Neighbor list info ...
  update: every = 1 steps, delay = 1 steps, check = yes
  max neighbors/atom: 2000, page size: 100000
  master list distance cutoff = 5.1224615
  ghost atom cutoff = 5.1224615
  binsize = 2.5612308, bins = 781 781 781
  1 neighbor lists, perpetual/occasional/extra = 1 0 0
  (1) pair lj/cut/omp, perpetual
      attributes: half, newton on, omp
      pair build: half/bin/newton/omp
      stencil: half/bin/3d
      bin: standard
WARNING: Communication cutoff 5.12246152962189 is shorter than a bond length based estimate of 5.455. This may lead to errors. (src/comm.cpp:723)
Per MPI rank memory allocation (min/avg/max) = 1860 | 1860 | 1860 Mbytes
   Step          Temp         Enthalpy         c_1      
         0   0              13.350736      168.49222    
      1000   1.0073488      18.480124      168.2714     
      2000   1.0372361      18.56959       167.76319    
      3000   0.98985724     18.787411      167.35042    
      4000   0.96654045     18.919315      167.00792    
      5000   1.0185284      18.748956      167.02786    
      6000   1.0040577      18.663007      166.92482    
      7000   0.97309149     18.741085      166.73276    
      8000   0.98246246     19.128311      166.48182    
      9000   1.0205118      18.890876      166.12111    
     10000   1.0123106      19.184176      165.81753    
     11000   1.0020943      18.229809      165.37894    
     12000   1.0230378      19.202566      165.21981    
     13000   1.0111179      18.874525      164.79579    
     14000   0.9892315      19.091357      164.50628    
     15000   0.9847202      18.65259       164.06746    
     16000   0.98738222     19.088923      163.91926    
     17000   1.0374186      19.17081       163.66017    
     18000   0.98580949     19.130233      163.59371    
     19000   0.97908515     19.036139      163.40484    
     20000   1.0377152      19.362483      163.08747    
     21000   0.97709071     18.878967      162.79442    
     22000   1.027792       19.271262      162.51467    
     23000   0.9973743      19.058907      162.26311    
     24000   1.0252011      19.174604      162.08614    
     25000   0.98604142     18.913474      161.80717    
     26000   1.0056299      19.459297      161.70171    
     27000   1.0101381      19.20809       161.51       
     28000   1.0035733      19.120573      161.29791    
     29000   0.99398454     19.137674      161.12614    
     30000   0.98605347     19.241914      160.77988    
     31000   0.99442867     18.952841      160.59226    
     32000   1.0011693      18.941494      160.49661    
     33000   1.0234314      19.339047      160.29344    
     34000   0.96815898     19.28458       159.83063    
     35000   0.94520758     19.419276      159.51988    
     36000   1.0458921      19.524159      159.24718    
     37000   1.0049193      19.359107      159.02931    
     38000   0.95764546     19.173213      158.79333    
     39000   1.0102619      19.518171      158.44899    
     40000   0.95091089     18.901102      158.20521    
     41000   0.99782167     19.152932      157.76596    
     42000   0.99832412     19.285675      157.54499    
     43000   0.99303595     19.607394      157.40141    
     44000   1.0060578      19.737986      157.51281    
     45000   0.97726469     19.252889      157.37245    
     46000   0.99764815     19.510647      157.34005    
     47000   0.98267957     19.253159      157.32162    
     48000   1.0109434      19.258279      157.26409    
     49000   0.97759168     19.323293      156.97578    
     50000   0.98307188     19.383046      156.98805    
     51000   0.97190707     19.420625      156.7535     
     52000   1.0170197      19.810538      156.44147    
     53000   1.0012066      19.268846      156.27255    
     54000   1.0211282      19.673491      156.02328    
     55000   1.0180456      19.535792      155.94927    
     56000   0.97488379     19.374314      155.96504    
     57000   0.98305029     19.038092      155.79073    
     58000   1.0323226      19.828398      155.61579    
     59000   1.0175019      19.303493      155.30859    
     60000   0.96209906     19.483783      154.91937    
     61000   0.99434687     19.499526      154.82033    
     62000   0.97540237     19.334815      154.38779    
     63000   0.97204267     19.406359      154.22445    
     64000   0.96741806     19.086066      154.03205    
     65000   1.0304606      19.097421      153.68566    
     66000   1.0019471      19.238745      153.59783    
     67000   1.0343219      19.745082      153.54523    
     68000   0.99645043     19.478753      153.68417    
     69000   1.025443       19.498237      153.45054    
     70000   1.0487795      19.622598      153.53602    
     71000   0.96921827     19.186326      153.28688    
     72000   1.0077183      20.04297       153.02356    
     73000   1.0018695      19.812361      152.87083    
     74000   1.0078233      19.296281      152.60584    
     75000   0.96286853     19.876515      152.38207    
     76000   0.94106373     19.783247      152.07285    
     77000   0.99255176     19.201203      151.87305    
     78000   0.97667641     19.677897      151.64927    
     79000   1.0192602      19.778856      151.54946    
     80000   1.0019322      19.344844      151.23257    
     81000   0.97561991     19.482539      151.14003    
     82000   1.0036003      19.996876      151.00736    
     83000   1.0437829      19.432547      150.91891    
     84000   1.018828       19.475174      150.39726    
     85000   1.0131497      20.418028      150.42746    
     86000   0.98755266     19.671234      150.06838    
     87000   1.023311       19.496648      150.06588    
     88000   0.99916302     19.951696      149.93157    
     89000   0.98267878     19.75711       149.58065    
     90000   0.97316475     19.699731      149.27878    
     91000   1.0014059      19.624531      148.91985    
     92000   1.0173425      19.787507      148.62941    
     93000   1.0195614      20.080314      148.5068     
     94000   0.95387865     19.264838      148.24081    
     95000   0.99964479     19.632264      148.26496    
     96000   1.0023101      19.958168      148.47196    
     97000   0.96135132     19.413946      148.47332    
     98000   0.96326824     20.231473      148.32745    
     99000   1.0100368      19.924125      148.36007    
    100000   1.0097878      19.879461      148.09499    
Loop time of 340.305 on 2 procs for 100000 steps with 1000 atoms

Performance: 253890.102 tau/day, 293.854 timesteps/s
95.7% CPU use with 1 MPI tasks x 2 OpenMP threads

MPI task timing breakdown:
Section |  min time  |  avg time  |  max time  |%varavg| %total
---------------------------------------------------------------
Pair    | 1.258      | 1.258      | 1.258      |   0.0 |  0.37
Bond    | 2.7039     | 2.7039     | 2.7039     |   0.0 |  0.79
Neigh   | 329.22     | 329.22     | 329.22     |   0.0 | 96.74
Comm    | 0.037624   | 0.037624   | 0.037624   |   0.0 |  0.01
Output  | 0.413      | 0.413      | 0.413      |   0.0 |  0.12
Modify  | 6.2876     | 6.2876     | 6.2876     |   0.0 |  1.85
Other   |            | 0.3885     |            |       |  0.11

Nlocal:           1000 ave        1000 max        1000 min
Histogram: 1 0 0 0 0 0 0 0 0 0
Nghost:              0 ave           0 max           0 min
Histogram: 1 0 0 0 0 0 0 0 0 0
Neighs:           5192 ave        5192 max        5192 min
Histogram: 1 0 0 0 0 0 0 0 0 0

Total # of neighbors = 5192
Ave neighs/atom = 5.192
Ave special neighs/atom = 1.998
Neighbor list builds = 1078
Dangerous builds = 0

# Replace lj potential, now collapse
pair_style      lj/cut 3

# Cutoff simul when gyration under 7
# Variable created with equal requires v_ + 'name'
fix 3 all halt 1000 v_rog < 7

run 5000000
Generated 0 of 0 mixed pair_coeff terms from geometric mixing rule
Last active /omp style is angle_style cosine/omp
Per MPI rank memory allocation (min/avg/max) = 1860 | 1860 | 1860 Mbytes
   Step          Temp         Enthalpy         c_1      
    100000   1.0097878      19.356601      148.09499    
    101000   0.97601052     19.346236      147.89305    
    102000   1.0245861      19.059005      147.61008    
    103000   1.0163879      19.403059      147.44865    
    104000   1.0677521      19.674812      147.50182    
    105000   0.96851863     19.142795      147.21671    
    106000   1.0286322      19.739708      146.95719    
    107000   0.98106277     19.531853      146.94101    
    108000   0.99851011     19.163705      146.77899    
    109000   0.98242304     19.453471      146.38724    
    110000   0.99011247     19.5124        146.30713    
    111000   1.0076817      19.311518      146.26619    
    112000   0.94342971     19.358941      146.04905    
    113000   1.0077892      19.200251      145.8706     
    114000   0.99666476     19.282636      145.94851    
    115000   0.98914235     19.485542      145.61817    
    116000   0.99256516     19.504974      145.50823    
    117000   1.0003689      19.58006       145.17083    
    118000   0.9936006      18.921932      145.0498     
    119000   0.99942447     19.13927       144.84213    
    120000   0.96768179     19.478585      144.71555    
    121000   0.98521137     19.078429      144.53636    
    122000   0.99089778     19.238924      144.16923    
    123000   0.98493979     19.191812      143.92194    
    124000   0.98164373     19.004787      143.7641     
    125000   1.0030677      19.337691      143.56923    
    126000   0.99550942     18.935097      143.38701    
    127000   0.97499005     19.030165      143.24218    
    128000   1.0379873      19.117678      143.0261     
    129000   1.0381256      19.19554       142.91547    
    130000   1.0144221      19.158223      143.02585    
    131000   1.0066722      18.760478      142.90699    
    132000   0.96356081     19.059753      142.78588    
    133000   0.95320575     18.784586      142.66303    
    134000   1.028991       20.172436      142.45574    
    135000   0.98819375     19.379032      142.44947    
    136000   0.99860805     19.166617      142.47292    
    137000   1.0059589      19.210087      142.23403    
    138000   1.0244982      19.777308      142.11606    
    139000   1.0473987      19.636803      141.89992    
    140000   1.0060732      19.25365       141.74132    
    141000   0.99413282     19.195118      141.36987    
    142000   1.0227833      19.475887      141.01782    
    143000   1.0025792      19.46768       140.92538    
    144000   1.0010802      19.224375      140.95127    
    145000   1.0062664      19.010111      140.8597     
    146000   1.0113536      19.082776      140.57079    
    147000   0.98316749     18.635368      140.36232    
    148000   1.0163493      19.086088      140.30192    
    149000   1.0385096      19.266433      140.12813    
    150000   1.0045232      19.163131      139.81016    
    151000   1.028068       18.987153      139.74814    
    152000   0.98938288     19.170528      139.48301    
    153000   0.99428281     19.428884      139.36283    
    154000   1.008666       19.261819      139.30589    
    155000   1.0135483      19.155882      139.26265    
    156000   0.94618738     19.645008      138.83088    
    157000   1.0214242      19.503745      138.68734    
    158000   1.0439686      18.676046      138.54795    
    159000   1.0176824      18.527737      138.49057    
    160000   0.99472766     19.418865      138.2566     
    161000   1.00418        18.83555       137.83662    
    162000   1.0200323      19.149964      137.63776    
    163000   1.0073524      19.080406      137.59854    
    164000   1.0264702      19.695208      137.32529    
    165000   0.99103905     19.827371      137.03476    
    166000   1.0431716      19.230327      136.72041    
    167000   0.97303627     19.208768      136.54637    
    168000   0.98905993     19.007038      136.56375    
    169000   0.97694411     18.445439      136.51178    
    170000   1.0573361      18.938185      136.22838    
    171000   1.0081272      18.941608      135.9446     
    172000   1.011116       19.139136      135.69342    
    173000   0.96758037     19.143997      135.55131    
    174000   0.97533054     19.777343      135.50679    
    175000   1.0068186      18.908835      135.34886    
    176000   0.97195112     19.402667      135.30505    
    177000   1.0231585      19.305577      135.19961    
    178000   1.013034       19.003033      134.85584    
    179000   0.99340846     19.334943      134.5676     
    180000   0.94617929     18.804249      134.49904    
    181000   1.023888       19.027129      134.45348    
    182000   0.98521982     19.031084      134.29465    
    183000   1.0188456      19.483772      134.14239    
    184000   0.99793051     19.288205      134.01635    
    185000   0.98460589     19.300401      133.79803    
    186000   1.0110769      18.693448      133.46331    
    187000   0.98282793     19.20357       133.19677    
    188000   0.98249316     18.823774      133.17472    
    189000   0.96494389     18.821883      132.9462     
    190000   0.98816082     18.743358      132.84162    
    191000   0.99302119     19.560546      132.76256    
    192000   1.0166376      18.661795      132.65848    
    193000   0.98473208     19.35658       132.62013    
    194000   1.0445139      18.741925      132.58335    
    195000   0.98789938     19.281672      132.21625    
    196000   0.99954196     19.319984      131.95243    
    197000   0.98200661     18.901625      131.52998    
    198000   1.0020867      18.503514      131.40481    
    199000   0.97392405     18.748465      131.30642    
    200000   0.93638214     19.194381      131.11072    
    201000   0.974611       19.077199      130.98017    
    202000   0.9999687      19.153495      130.9027     
    203000   0.99719978     18.762686      130.89784    
    204000   0.99360184     18.911841      130.7789     
    205000   0.98818181     19.386897      130.73367    
    206000   1.0455547      18.872195      130.64807    
    207000   0.99673436     19.405011      130.41698    
    208000   1.0061055      19.447368      130.1765     
    209000   0.94907326     19.460291      130.05105    
    210000   1.01551        18.686382      129.8035     
    211000   1.0288696      19.580308      129.71976    
    212000   0.98885994     18.889677      129.50924    
    213000   1.021298       19.584278      129.0124     
    214000   1.0068578      19.041714      128.8466     
    215000   1.0637633      18.887057      128.77029    
    216000   0.95873097     19.078117      128.52308    
    217000   0.98851271     19.029909      128.24065    
    218000   1.0211684      19.119003      128.23198    
    219000   0.93663392     19.458584      128.05257    
    220000   0.99750435     18.616972      127.80976    
    221000   1.0472348      19.249544      127.81044    
    222000   1.023537       19.4345        127.78966    
    223000   1.0275367      19.83984       127.51802    
    224000   1.0556332      19.129522      127.54407    
    225000   0.97141128     18.820682      127.3725     
    226000   1.0346048      19.388412      127.36785    
    227000   0.97642274     19.110733      127.21828    
    228000   1.0078784      18.933587      127.32656    
    229000   0.9807867      18.8144        127.11253    
    230000   0.98312454     18.751852      126.88843    
    231000   1.0227854      18.943758      126.54801    
    232000   1.005049       18.903135      126.46241    
    233000   1.0638999      19.149428      126.43363    
    234000   1.0146677      18.944747      126.20981    
    235000   1.0132834      18.694649      126.15141    
    236000   0.97558937     19.177096      125.84037    
    237000   0.99059479     18.806454      125.81277    
    238000   1.0098827      19.358034      125.61155    
    239000   1.0198531      19.834295      125.51856    
    240000   1.0089468      19.112053      125.33992    
    241000   1.0086048      19.342244      125.19086    
    242000   0.95963063     18.58877       125.14598    
    243000   0.98539307     18.740476      124.86959    
    244000   0.99885256     19.00162       124.71049    
    245000   1.029965       19.233723      124.75459    
    246000   0.98551343     18.890622      124.60443    
    247000   0.98620898     19.105597      124.60857    
    248000   1.0343817      18.97419       124.48581    
    249000   0.9738548      18.987353      124.33061    
    250000   0.97515404     18.808527      123.99788    
    251000   1.0375506      19.205034      123.49674    
    252000   1.0061916      18.699912      123.66569    
    253000   1.0257117      18.435512      123.71022    
    254000   0.99590199     19.140975      123.6958     
    255000   0.96431088     18.916124      123.46494    
    256000   0.99099033     18.46454       123.22295    
    257000   0.97105999     18.930879      123.01327    
    258000   0.96923761     18.840133      122.98695    
    259000   0.97013057     18.688303      122.48277    
    260000   0.99391919     19.601646      122.27427    
    261000   0.96470036     18.604414      122.09839    
    262000   0.97102064     18.733226      121.90157    
    263000   1.0281654      18.911057      121.75566    
    264000   1.016292       19.174332      121.85521    
    265000   0.98938493     18.076639      121.70994    
    266000   1.0237907      18.713242      121.64794    
    267000   1.0150226      19.418264      121.45535    
    268000   1.0097493      18.77223       121.2851     
    269000   0.95826108     18.833784      121.12968    
    270000   1.0410333      19.135548      121.07115    
    271000   1.0077873      19.191262      120.88787    
    272000   0.99943868     19.262336      120.81572    
    273000   0.9946002      18.760533      120.90352    
    274000   1.0206266      18.764112      120.71978    
    275000   1.0357418      19.50055       120.64537    
    276000   0.99416245     19.241916      120.47044    
    277000   1.0429001      18.952392      120.45546    
    278000   1.0213226      18.925276      120.27479    
    279000   0.99791148     18.688777      120.16881    
    280000   1.0271362      19.086373      119.99309    
    281000   1.0067083      18.812333      119.73009    
    282000   1.0039459      18.722339      119.5562     
    283000   1.0346154      19.013067      119.54957    
    284000   0.95446671     18.455419      119.44082    
    285000   0.99341474     18.826051      119.40657    
    286000   0.96881838     18.875715      119.20475    
    287000   0.98124634     18.667516      118.92842    
    288000   1.0051223      18.727595      118.59297    
    289000   0.96900734     18.576603      118.58514    
    290000   1.0264508      19.023546      118.59227    
    291000   1.0011302      19.288679      118.46638    
    292000   0.95719317     19.037208      118.3632     
    293000   1.025616       18.770828      118.29497    
    294000   1.0100829      19.136275      118.43869    
    295000   1.0105498      18.926115      118.62597    
    296000   1.0599254      19.467531      118.61039    
    297000   1.0285737      19.357097      118.51266    
    298000   1.0275863      18.863352      118.1891     
    299000   0.99412448     18.646475      117.90709    
    300000   0.98168712     18.461295      117.38484    
    301000   1.0024542      18.424172      117.10059    
    302000   0.9446984      18.485806      116.92081    
    303000   1.0331021      18.92449       116.89905    
    304000   1.0075206      18.720425      116.71133    
    305000   1.0071931      19.104296      116.50533    
    306000   0.99373452     18.812276      116.34446    
    307000   1.0129745      18.974445      116.25537    
    308000   0.98722477     19.380071      116.03711    
    309000   1.0540776      18.865832      115.68008    
    310000   1.0197121      19.160033      115.44325    
    311000   1.0086632      18.460899      115.23551    
    312000   0.97199068     18.919133      115.0315     
    313000   1.0254007      19.068204      114.72485    
    314000   1.0060282      18.809285      114.78265    
    315000   0.99586714     18.502763      114.66034    
    316000   1.0319683      19.166734      114.71447    
    317000   0.99459382     18.625213      114.44438    
    318000   0.98018642     19.023666      114.39088    
    319000   1.007106       18.962365      114.34599    
    320000   0.97994917     19.166823      114.27256    
    321000   0.98457406     19.269839      114.0997     
    322000   0.98174572     18.879345      114.07462    
    323000   1.0163345      19.365393      113.90717    
    324000   1.0179861      18.765762      113.96923    
    325000   1.0450474      19.257718      113.77355    
    326000   1.0096631      19.065001      113.47121    
    327000   1.0515134      19.304497      113.4876     
    328000   1.0284101      19.539433      113.07068    
    329000   0.99339921     18.462318      112.92932    
    330000   1.0126776      18.920929      112.81488    
    331000   1.0518376      19.050973      112.62341    
    332000   1.0144516      18.92515       112.50351    
    333000   0.99826649     18.884505      112.22465    
    334000   0.98844066     19.09759       112.15257    
    335000   1.0194082      18.150283      111.96401    
    336000   0.9545933      18.597965      111.97579    
    337000   0.99400068     18.756492      111.81695    
    338000   1.0026932      18.553907      111.61346    
    339000   1.0076255      18.548583      111.73792    
    340000   1.0162376      18.897501      111.65976    
    341000   1.0055316      18.81209       111.45501    
    342000   0.97776512     18.65751       111.21961    
    343000   1.0169644      19.226297      111.30958    
    344000   0.93177872     18.866797      111.24607    
    345000   0.99268944     18.287833      111.07411    
    346000   0.9774119      18.454191      111.00286    
    347000   1.0023557      18.658941      110.82894    
    348000   1.0019557      18.755561      110.54971    
    349000   0.96868326     18.822191      110.46958    
    350000   1.0159576      18.380686      110.28673    
    351000   1.0506872      19.001711      109.8843     
    352000   0.99236022     19.025987      109.72601    
    353000   1.0122434      18.815954      109.64049    
    354000   1.0133133      18.884627      109.45967    
    355000   1.0206721      19.309256      109.37616    
    356000   1.0048219      18.679683      109.19523    
    357000   1.033201       18.911764      109.15238    
    358000   0.99409031     19.087247      109.11534    
    359000   0.97606264     18.891372      108.97834    
    360000   0.99672032     19.023645      109.07654    
    361000   1.0008984      18.860094      108.92403    
    362000   1.0128845      18.738587      108.72878    
    363000   1.038054       19.022569      108.57873    
    364000   0.99449894     18.960188      108.20652    
    365000   0.99392406     18.570145      108.03552    
    366000   1.0311749      18.991012      107.94369    
    367000   0.99232461     19.087502      107.78969    
    368000   0.98024856     18.616786      107.47945    
    369000   0.97090064     18.97781       107.23567    
    370000   1.0295003      19.279632      107.08881    
    371000   0.98240186     18.361017      106.77427    
    372000   1.0262615      19.409834      106.48502    
    373000   1.0167333      18.882466      106.5369     
    374000   1.0009195      18.541879      106.46972    
    375000   0.97554496     18.748315      106.36786    
    376000   1.0424997      19.136561      106.1815     
    377000   1.0120623      19.366759      106.12996    
    378000   1.0446819      19.376512      106.12806    
    379000   0.98565895     19.248703      106.02155    
    380000   1.0644655      18.893363      105.71852    
    381000   0.99718976     19.014198      105.70818    
    382000   1.0040953      19.479505      105.43282    
    383000   0.9989144      18.194816      105.18978    
    384000   1.0052408      19.467934      105.08769    
    385000   0.96628326     19.289254      105.12026    
    386000   0.98489191     18.845422      105.15257    
    387000   0.99598855     18.889477      105.13847    
    388000   0.99600951     19.131199      104.92618    
    389000   1.0072197      19.07962       104.60724    
    390000   1.0259144      18.606622      104.50393    
    391000   1.0081533      19.161698      104.14734    
    392000   1.0018937      18.821785      103.99151    
    393000   0.96591806     18.600125      104.04228    
    394000   0.98206646     18.979563      104.12117    
    395000   1.0214546      18.434287      103.773      
    396000   0.99606122     18.901327      103.52967    
    397000   1.0071478      18.872884      103.36382    
    398000   1.0159495      19.020807      103.09753    
    399000   0.99928634     18.715882      103.1037     
    400000   1.0537345      19.189163      102.93011    
    401000   0.98632153     19.196607      102.86954    
    402000   0.97304115     18.697914      102.65736    
    403000   1.01198        19.024177      102.57951    
    404000   1.0030417      19.253857      102.37115    
    405000   0.98977303     18.547528      102.13638    
    406000   1.0588194      18.811689      101.98564    
    407000   0.98860882     18.250362      101.74273    
    408000   1.0039799      18.899582      101.83422    
    409000   0.99628358     18.962351      101.87428    
    410000   0.99423217     19.08096       101.88952    
    411000   0.98496592     19.071279      101.78506    
    412000   0.9762774      18.389237      101.69307    
    413000   0.98362219     18.827899      101.39782    
    414000   1.003271       18.934019      101.38007    
    415000   1.0360686      18.458287      101.50929    
    416000   0.97426898     18.942632      101.35821    
    417000   0.96494607     18.842168      101.20583    
    418000   1.0240302      18.41407       100.88737    
    419000   1.028255       18.698466      100.75547    
    420000   0.98317915     18.971144      100.40963    
    421000   0.99816757     18.581605      100.21347    
    422000   1.0046305      18.63957       100.05534    
    423000   1.013733       17.977419      99.79498     
    424000   0.98476156     18.753693      99.479604    
    425000   0.95550269     19.068286      99.342381    
    426000   0.99168233     18.310039      99.312558    
    427000   0.98786201     18.451036      99.345774    
    428000   1.0055572      18.922668      99.202311    
    429000   1.0339462      18.306068      98.948292    
    430000   1.0392295      18.39526       98.734102    
    431000   1.0068645      19.008937      98.839904    
    432000   0.97992861     18.979163      98.595173    
    433000   0.94498922     18.475372      98.355372    
    434000   1.0108727      18.813801      98.247119    
    435000   1.0144381      18.252534      98.234008    
    436000   1.0139628      18.522419      98.345704    
    437000   0.99786177     18.580224      98.179938    
    438000   0.99715011     18.581227      98.041377    
    439000   1.0493809      18.714444      97.865024    
    440000   0.9831046      18.837077      97.8214      
    441000   0.95550379     18.834995      97.789636    
    442000   1.0330664      18.762994      97.626177    
    443000   0.94229237     18.27728       97.614601    
    444000   0.96797302     18.710484      97.47404     
    445000   0.97688927     18.838168      97.311421    
    446000   1.0291658      19.485605      97.046246    
    447000   0.97251429     18.706896      96.681118    
    448000   1.0099445      18.548124      96.493755    
    449000   0.99289738     17.861712      96.2996      
    450000   0.98671587     18.626531      95.952449    
    451000   0.97499509     18.821313      95.939515    
    452000   1.0340223      19.047337      96.067975    
    453000   1.0765081      18.492084      95.959662    
    454000   0.99193776     18.740562      95.835154    
    455000   1.0248112      18.341767      95.832672    
    456000   0.97796366     18.265977      95.837966    
    457000   1.0098464      18.389184      95.799862    
    458000   0.96523511     18.668449      95.753495    
    459000   1.0168857      18.144807      95.424568    
    460000   0.95555117     18.438171      95.343573    
    461000   1.0182419      18.918186      95.221521    
    462000   0.96923479     18.393075      95.163299    
    463000   0.94935303     18.090756      95.062138    
    464000   1.0185452      18.755304      94.991877    
    465000   0.98579982     18.31557       94.853522    
    466000   1.0288537      18.110803      94.562513    
    467000   0.97142992     18.311533      94.522741    
    468000   0.97867144     18.161797      94.325337    
    469000   0.99488972     18.848532      94.138849    
    470000   1.0182878      18.782099      93.885741    
    471000   0.96375287     18.182416      93.747088    
    472000   0.99573107     18.277873      93.683865    
    473000   0.99382362     19.200698      93.554735    
    474000   0.99906781     18.740846      93.447907    
    475000   0.96746692     18.147326      93.414103    
    476000   1.0470415      17.988495      93.529844    
    477000   0.99581357     18.478993      93.411105    
    478000   0.98566538     18.414344      92.980806    
    479000   1.0159902      18.55784       93.072478    
    480000   0.97441743     18.446953      93.000047    
    481000   1.0329517      19.270969      92.980626    
    482000   0.99409449     18.063899      92.74652     
    483000   1.0226235      18.581582      92.422034    
    484000   1.0463981      18.553916      92.202305    
    485000   0.98333878     18.51215       92.287576    
    486000   0.98816829     18.37829       92.066957    
    487000   1.0376229      18.356885      91.979046    
    488000   0.98009243     18.892042      91.835527    
    489000   1.0050767      18.839684      91.742918    
    490000   0.98531545     18.67197       91.59843     
    491000   1.0308236      18.337492      91.660495    
    492000   0.98427739     18.209789      91.435426    
    493000   1.0211119      18.831519      91.261222    
    494000   0.97709283     18.245442      91.294319    
    495000   0.95179209     18.20852       91.043514    
    496000   0.99213182     18.90776       90.860881    
    497000   1.0326673      18.958768      90.78406     
    498000   1.0264815      18.17775       90.654804    
    499000   1.0136983      19.105674      90.371944    
    500000   0.98470959     18.948517      90.211264    
    501000   1.0529794      19.083814      89.968368    
    502000   1.0047028      18.041434      89.704922    
    503000   0.94753332     18.431885      89.377167    
    504000   1.0281912      18.095014      89.341004    
    505000   0.96376627     18.625306      89.029602    
    506000   0.96766605     18.371807      88.830486    
    507000   1.0141228      18.177454      88.721559    
    508000   1.021625       18.509318      88.402777    
    509000   0.9514853      17.918893      88.059667    
    510000   0.95770572     18.60448       87.90033     
    511000   1.0043297      18.910012      87.905205    
    512000   0.96747167     18.132491      87.650079    
    513000   0.99302885     18.155745      87.33687     
    514000   1.0041747      18.056442      87.207907    
    515000   1.0050968      18.77351       87.125266    
    516000   0.96673962     18.356034      86.889306    
    517000   1.010227       18.96636       86.888022    
    518000   0.925004       18.050061      86.726359    
    519000   0.94883665     17.906946      86.577274    
    520000   0.98706595     18.116459      86.449888    
    521000   0.98617511     18.035658      86.539478    
    522000   0.99305434     18.748812      86.478011    
    523000   1.0234225      18.809086      86.144958    
    524000   1.0261652      18.678038      85.916128    
    525000   1.0093788      18.367663      85.688229    
    526000   0.9828464      18.465409      85.587359    
    527000   0.98745383     18.349817      85.614166    
    528000   0.98604019     18.625634      85.469516    
    529000   1.0183467      18.694324      85.393847    
    530000   0.96601013     17.907526      85.341526    
    531000   1.0437901      18.760722      85.283849    
    532000   0.93636917     18.392444      85.355068    
    533000   0.99125416     18.127286      85.40195     
    534000   1.0237965      17.947941      85.323859    
    535000   1.0100215      18.919986      84.881386    
    536000   1.0069913      17.897558      84.651274    
    537000   1.0189597      18.318315      84.559039    
    538000   0.99916822     18.328272      84.500374    
    539000   1.0018953      18.388024      84.203243    
    540000   1.0226502      18.122161      83.951239    
    541000   0.97788113     18.059186      83.907147    
    542000   1.0127974      18.17619       83.947189    
    543000   0.98695326     17.954661      83.653129    
    544000   0.99725973     18.450809      83.379402    
    545000   1.0020637      17.956156      83.142626    
    546000   0.9830153      17.897682      82.889706    
    547000   0.96875317     18.665455      82.726786    
    548000   0.98124782     18.767921      82.603501    
    549000   0.94732499     17.985981      82.578736    
    550000   0.99187026     18.528403      82.553905    
    551000   0.97824971     18.407895      82.578057    
    552000   0.99473998     18.540336      82.448106    
    553000   1.0250786      18.391497      82.345832    
    554000   1.0111646      18.338309      82.12553     
    555000   0.98198956     18.390649      82.005062    
    556000   0.91631148     18.234383      81.596718    
    557000   1.0283801      18.601242      81.536571    
    558000   0.96893945     18.483726      81.567972    
    559000   0.99648257     17.796384      81.503262    
    560000   1.0201984      18.515663      81.373364    
    561000   1.024317       18.699962      81.092133    
    562000   1.0041938      18.787206      81.019441    
    563000   0.99156653     17.980984      80.929689    
    564000   1.0211199      19.161366      81.019615    
    565000   0.98842529     18.134516      80.839475    
    566000   1.0223647      18.005713      80.805763    
    567000   0.99554085     18.338121      80.832733    
    568000   1.0155772      18.764385      80.565185    
    569000   0.97553256     18.049682      80.620139    
    570000   0.99255322     18.250063      80.442236    
    571000   1.0209266      18.45201       80.355526    
    572000   0.97916425     17.765519      80.296101    
    573000   0.99126865     18.127609      80.295016    
    574000   0.98325354     18.304884      80.135697    
    575000   0.99447017     18.230764      79.997791    
    576000   1.0262         18.739592      79.733481    
    577000   1.0037797      17.848172      79.707669    
    578000   1.00417        17.764754      79.554167    
    579000   1.0010945      18.006007      79.713897    
    580000   0.98825247     18.236238      79.369846    
    581000   0.99620052     18.369743      79.308848    
    582000   0.96562354     18.4202        79.353667    
    583000   1.0550666      18.311249      79.248717    
    584000   1.0048938      18.255521      79.161139    
    585000   1.012824       18.235593      79.096592    
    586000   1.0136565      18.458596      79.013386    
    587000   0.95241924     17.865512      79.151462    
    588000   0.99992944     18.388486      79.054883    
    589000   0.98997102     17.979479      78.973692    
    590000   0.97912112     18.356111      78.793598    
    591000   0.99594727     18.787277      78.551481    
    592000   0.98953579     17.904012      78.243506    
    593000   1.0584084      18.395743      78.084934    
    594000   0.97377846     18.044167      77.78708     
    595000   1.0155086      18.047569      77.942242    
    596000   0.98693125     18.564707      77.830999    
    597000   0.98534516     18.177699      77.950596    
    598000   0.99580676     18.568612      77.915483    
    599000   0.96034418     18.066546      77.662457    
    600000   1.0432586      18.605214      77.610342    
    601000   0.9547271      17.981494      77.299892    
    602000   0.99378966     18.985342      77.292997    
    603000   0.99105152     18.476433      77.269264    
    604000   1.0119945      18.390263      77.177426    
    605000   1.0401564      18.464754      76.962885    
    606000   0.98418432     19.076699      76.935334    
    607000   0.99269679     18.216047      76.869006    
    608000   0.98096806     18.025754      76.8619      
    609000   1.0449388      18.521832      76.63276     
    610000   0.99019438     18.395955      76.391598    
    611000   0.98909636     18.201217      76.304775    
    612000   0.98120766     18.075952      76.194691    
    613000   0.96539835     17.917901      75.949806    
    614000   0.91514865     18.108836      75.883898    
    615000   1.0065051      18.299562      75.651171    
    616000   1.0063883      18.091663      75.750376    
    617000   0.98952044     18.127887      75.596634    
    618000   0.99229378     18.601963      75.651029    
    619000   0.98718914     18.455371      75.812252    
    620000   0.99818527     18.031183      75.82689     
    621000   0.99191968     18.527511      75.674535    
    622000   1.04228        18.462385      75.753034    
    623000   0.97244749     18.411364      75.436094    
    624000   0.99179551     17.953593      75.523239    
    625000   0.99380443     17.948077      75.258757    
    626000   1.0014314      18.233406      75.1985      
    627000   0.98253679     18.113239      75.091359    
    628000   1.0215636      18.485918      74.968212    
    629000   1.0125419      18.082981      74.755288    
    630000   0.9748088      18.627334      74.797882    
    631000   0.97164389     17.827756      74.837551    
    632000   1.0261348      18.782196      74.811419    
    633000   1.0263649      17.8105        74.793504    
    634000   1.0018952      18.135152      74.676203    
    635000   1.0133185      18.504652      74.547546    
    636000   0.99040352     18.187634      74.43761     
    637000   0.99033986     18.256957      74.312711    
    638000   1.0328772      18.583984      74.297456    
    639000   1.0391753      18.024411      74.241261    
    640000   0.9970156      18.587591      74.182408    
    641000   1.0049072      18.21688       74.337549    
    642000   1.028608       18.498804      74.354982    
    643000   1.0649944      18.149345      74.314616    
    644000   0.97345477     17.977229      74.2794      
    645000   0.99469573     19.175649      74.247659    
    646000   1.0409922      17.975964      74.318887    
    647000   1.0322818      18.134987      74.28009     
    648000   1.0359602      18.147318      74.238941    
    649000   1.0365292      17.942858      74.181837    
    650000   0.95309104     17.281025      74.20422     
    651000   1.0190901      18.253051      74.084968    
    652000   0.95394355     17.837574      73.805409    
    653000   0.99194932     18.143144      73.776556    
    654000   1.0366868      18.225871      73.592355    
    655000   1.0063156      17.658235      73.523812    
    656000   1.0124783      17.947634      73.525228    
    657000   1.0217069      18.582868      73.626276    
    658000   1.0016913      17.941674      73.43531     
    659000   0.96379915     18.526002      73.140951    
    660000   0.9966068      18.380185      72.925114    
    661000   0.98525475     18.00871       72.756057    
    662000   1.0224268      18.262699      72.721697    
    663000   0.96888861     18.440845      72.602271    
    664000   1.0057869      18.019235      72.460133    
    665000   0.98223582     18.069511      72.38859     
    666000   0.97154719     18.247183      72.357534    
    667000   1.0234018      18.410132      72.452913    
    668000   1.0377652      18.15517       72.037928    
    669000   1.0256608      18.133543      71.943406    
    670000   0.9712366      18.448824      72.01365     
    671000   0.98474215     18.561849      71.908603    
    672000   1.0152441      18.667008      71.755892    
    673000   1.0031325      17.827791      71.601954    
    674000   1.0282408      18.641615      71.567239    
    675000   0.98439801     18.176716      71.561866    
    676000   0.98790793     18.115219      71.545269    
    677000   1.0231429      18.717027      71.282844    
    678000   0.98092704     17.710554      71.165884    
    679000   0.98886488     18.26354       71.162811    
    680000   0.98270224     18.056786      70.897675    
    681000   1.0097499      18.524263      70.781775    
    682000   0.9831533      18.135181      70.464274    
    683000   0.99994211     18.252072      70.331916    
    684000   0.93291878     17.700989      70.270541    
    685000   1.0176183      18.633726      70.319457    
    686000   0.98656789     18.076907      70.137587    
    687000   0.99896042     17.972321      69.971972    
    688000   0.98467531     18.070476      69.757193    
    689000   0.99548198     18.209927      69.760607    
    690000   0.97969664     18.005514      69.76903     
    691000   1.0259023      18.790828      69.523843    
    692000   1.0251207      18.272918      69.422287    
    693000   1.0265035      18.4277        69.532824    
    694000   1.0343146      18.573076      69.389111    
    695000   1.0234247      18.165321      69.310371    
    696000   1.008329       18.32103       69.238813    
    697000   0.99359997     18.458404      69.328299    
    698000   0.97068767     17.672473      69.339327    
    699000   1.0268801      17.864677      69.302218    
    700000   1.0111106      18.407114      69.14649     
    701000   1.0100772      18.176213      69.161185    
    702000   1.0500431      18.580395      69.165785    
    703000   0.99978118     17.960464      69.018897    
    704000   1.0060031      18.157235      68.976306    
    705000   1.0354371      18.338651      68.951051    
    706000   1.0653261      18.511269      68.755337    
    707000   1.0241448      18.758535      68.69764     
    708000   1.0181371      18.158973      68.618761    
    709000   0.98491772     17.894049      68.746057    
    710000   0.98493354     18.534262      68.50251     
    711000   1.0147158      18.094907      68.400411    
    712000   0.9883704      18.014098      68.375153    
    713000   0.97520397     18.140961      68.42982     
    714000   0.98548708     18.233309      68.151205    
    715000   1.0045745      18.512946      68.009861    
    716000   0.98547136     17.991796      67.944465    
    717000   1.0225706      18.121387      67.824119    
    718000   1.0210223      18.108068      67.950115    
    719000   0.99088713     18.385618      67.885089    
    720000   0.9839585      18.45037       67.674187    
    721000   1.0170695      17.944125      67.571448    
    722000   1.0219372      18.497721      67.245215    
    723000   1.0459491      18.340382      67.069452    
    724000   1.024825       18.131768      67.068823    
    725000   0.96234835     18.34967       66.855016    
    726000   0.97172108     18.386462      66.573195    
    727000   1.0367741      18.142223      66.336894    
    728000   1.0481368      18.182627      66.406028    
    729000   1.0073257      18.223394      66.197068    
    730000   1.0045024      18.115295      66.251087    
    731000   1.0276391      17.976743      66.039705    
    732000   1.0137061      18.018137      65.887097    
    733000   0.96519712     19.004394      65.637496    
    734000   1.0058466      18.702925      65.495213    
    735000   1.0321677      18.134253      65.441704    
    736000   0.95898135     18.235868      65.579089    
    737000   0.99813114     17.631552      65.513594    
    738000   0.99196042     17.927401      65.619883    
    739000   1.0083428      18.229405      65.714659    
    740000   1.0029007      18.3261        65.84507     
    741000   0.96286868     17.815445      65.590311    
    742000   1.0164167      17.92042       65.440475    
    743000   0.98723778     18.073441      65.326889    
    744000   0.97946721     18.213201      65.400236    
    745000   0.95511854     18.231561      65.602597    
    746000   0.9953208      18.114795      65.468157    
    747000   1.0157161      17.878831      65.257141    
    748000   1.0102776      18.306845      65.163085    
    749000   1.0188216      18.26466       64.980721    
    750000   1.0312899      18.18486       64.963013    
    751000   0.97885038     17.707301      64.855661    
    752000   1.0147753      18.083572      64.936309    
    753000   1.0386285      18.591121      65.073083    
    754000   1.0367729      18.20774       64.971532    
    755000   1.0013494      17.968189      64.980046    
    756000   0.98938298     17.934796      64.989986    
    757000   0.99212677     18.65134       64.73448     
    758000   1.0005777      18.266798      64.599957    
    759000   1.0440515      17.884715      64.691591    
    760000   1.0201621      18.110594      64.650097    
    761000   1.0169805      18.112089      64.507527    
    762000   1.0049848      17.7663        64.406116    
    763000   0.99383756     17.741523      64.374654    
    764000   0.98939289     18.035707      64.268398    
    765000   0.99852325     18.386358      64.146386    
    766000   1.0263449      18.379766      63.950314    
    767000   0.98607959     18.170323      63.994849    
    768000   1.0196465      18.159601      63.785748    
    769000   1.001237       18.418123      63.731055    
    770000   0.99037967     17.863329      63.617127    
    771000   1.021642       17.90989       63.639898    
    772000   0.9791124      17.792196      63.447275    
    773000   1.0135105      17.853331      63.33072     
    774000   0.98052748     17.851432      63.360429    
    775000   0.99675805     17.783948      63.409928    
    776000   1.046532       18.283646      63.363281    
    777000   1.0323097      17.885319      63.151659    
    778000   1.0607239      18.217669      62.913935    
    779000   1.0353055      17.831601      62.912755    
    780000   1.0289471      17.693631      62.700321    
    781000   1.0316942      17.769201      62.893039    
    782000   0.98384796     17.63472       62.828382    
    783000   0.9765445      17.898878      62.811619    
    784000   0.98828044     18.23197       62.735977    
    785000   0.96428824     17.935825      62.69635     
    786000   1.0325841      18.28687       62.476409    
    787000   1.0234204      18.270189      62.314839    
    788000   1.0188241      18.497577      62.203432    
    789000   1.0066996      18.612608      62.00738     
    790000   1.0032889      17.872322      62.232742    
    791000   0.99574421     17.992231      61.9343      
    792000   0.97095002     18.2025        61.779737    
    793000   0.96959088     17.624631      61.777521    
    794000   1.0070924      17.878898      62.0196      
    795000   0.98789775     18.204117      61.761254    
    796000   0.96268605     17.974411      61.650288    
    797000   1.0124689      17.754275      61.108417    
    798000   1.0373582      18.593283      61.043943    
    799000   1.0200528      18.285086      60.9911      
    800000   0.98107561     18.257429      60.924984    
    801000   0.98447352     18.001258      60.712582    
    802000   0.97138766     17.696791      60.369679    
    803000   1.0419371      18.165302      60.500992    
    804000   1.0126077      17.696413      60.593226    
    805000   1.0078945      17.080643      60.346963    
    806000   1.0132579      18.185401      60.008591    
    807000   1.0212552      18.15961       60.028869    
    808000   1.0532367      17.660211      59.716353    
    809000   1.0206108      17.93657       59.827945    
    810000   0.99985372     18.031307      59.844414    
    811000   1.0080751      17.940623      59.627921    
    812000   1.0320587      17.99113       59.536262    
    813000   1.0463371      17.840438      59.487097    
    814000   0.98691446     18.4979        59.340558    
    815000   0.98799637     18.285958      59.139845    
    816000   1.0070169      17.670461      59.076611    
    817000   1.0275573      18.258232      59.01469     
    818000   0.99555729     18.098083      58.753568    
    819000   0.99926631     17.059977      58.779592    
    820000   1.0433686      17.535455      58.736869    
    821000   0.98572274     17.537921      58.852096    
    822000   0.98981305     17.630176      58.785245    
    823000   0.98160951     17.923829      58.901429    
    824000   1.0508047      18.760023      59.021846    
    825000   0.99742644     17.998936      58.87258     
    826000   1.0190687      17.612763      58.719086    
    827000   0.99102962     18.399988      58.585424    
    828000   0.93946412     17.911375      58.50498     
    829000   0.95332782     17.244689      58.51062     
    830000   0.96697419     17.456169      58.328092    
    831000   0.96790924     17.74215       58.034642    
    832000   1.0121054      17.899471      57.806406    
    833000   0.97258976     18.636211      57.888806    
    834000   0.9483919      17.524549      57.912105    
    835000   1.0334133      18.384059      57.913009    
    836000   1.0079931      17.381036      57.940343    
    837000   1.0227391      18.319591      57.68655     
    838000   0.99373785     18.252952      57.483972    
    839000   1.0127256      17.699138      57.504041    
    840000   1.019645       17.81865       57.46663     
    841000   0.97335153     18.377044      57.186784    
    842000   1.0268059      17.512493      57.085261    
    843000   1.0291313      18.203564      57.098818    
    844000   1.0315527      17.862483      57.148839    
    845000   0.99406856     17.902038      57.032676    
    846000   1.0155487      18.16946       56.874854    
    847000   1.0120716      18.083248      56.803617    
    848000   0.99769768     18.223585      56.806279    
    849000   1.0071783      17.862077      56.877546    
    850000   0.9647855      17.948032      56.9257      
    851000   1.012886       17.653234      57.076926    
    852000   1.0555456      17.781671      57.074061    
    853000   1.051295       18.279067      57.106608    
    854000   1.0154963      18.642547      56.993069    
    855000   1.0166992      18.010847      56.75627     
    856000   0.99847632     18.241357      56.572083    
    857000   1.0018038      17.909141      56.306392    
    858000   1.0347287      18.653014      56.203256    
    859000   0.9865542      17.572331      56.135261    
    860000   0.96320457     17.950337      56.022711    
    861000   1.0261903      18.273564      56.035329    
    862000   0.9951565      17.882032      56.025778    
    863000   1.0008047      17.972773      56.133435    
    864000   0.95252761     18.176497      56.038795    
    865000   0.97696569     17.887993      56.08128     
    866000   1.0081313      17.522745      56.105995    
    867000   1.0478991      18.47837       55.836191    
    868000   1.0278809      17.435488      55.65247     
    869000   0.98873358     17.564916      55.400958    
    870000   1.0438161      17.96742       55.461879    
    871000   1.0144427      17.89521       55.119357    
    872000   0.96789853     17.820242      54.876252    
    873000   0.99946197     18.117653      54.622951    
    874000   0.94587104     17.802626      54.589193    
    875000   1.0303937      17.656941      54.587788    
    876000   0.98582123     17.457424      54.482367    
    877000   1.0046335      18.081547      54.452927    
    878000   1.0454684      18.057165      54.296385    
    879000   0.99256002     18.055655      54.290447    
    880000   0.98020943     17.455754      54.287719    
    881000   0.96946952     17.757328      54.39808     
    882000   0.99871979     18.347402      54.291321    
    883000   0.98391517     17.901519      54.057064    
    884000   0.99863217     17.959697      54.035012    
    885000   0.97065755     17.429739      53.898156    
    886000   1.0098471      18.067571      53.727762    
    887000   0.97323337     18.091393      53.676508    
    888000   0.97086345     17.750843      53.394185    
    889000   0.99460541     18.095825      53.32424     
    890000   0.98419811     17.844247      53.291434    
    891000   0.97444148     17.766625      53.338907    
    892000   0.99107485     17.997615      53.218616    
    893000   1.0098076      17.81394       52.782199    
    894000   1.003426       18.462578      52.538509    
    895000   0.94383936     17.697084      52.465031    
    896000   0.99046719     17.823206      52.400276    
    897000   1.0084483      17.799088      52.444641    
    898000   1.0617133      17.693836      52.208384    
    899000   1.0013292      17.688796      52.016112    
    900000   0.982909       18.105885      51.929341    
    901000   0.99830034     17.330431      51.726165    
    902000   1.0508183      18.302296      51.684563    
    903000   0.98495459     17.638656      51.806522    
    904000   0.96896066     18.147579      51.829305    
    905000   0.98153092     18.039831      51.773761    
    906000   1.0033534      17.819472      51.690546    
    907000   1.0223412      17.868254      51.685343    
    908000   0.92333417     17.760608      51.436218    
    909000   0.96613257     17.598832      51.43153     
    910000   0.99901214     18.202101      51.368728    
    911000   0.99913791     18.512294      51.031066    
    912000   0.97754441     17.748881      50.908589    
    913000   0.997272       17.953504      50.757927    
    914000   1.034658       17.839605      50.750146    
    915000   0.9905785      18.015881      50.530849    
    916000   0.99041437     17.326716      50.446743    
    917000   0.99006931     18.187965      50.235338    
    918000   0.99088253     18.173693      50.135508    
    919000   1.0296296      17.413257      49.902384    
    920000   1.0183916      17.730142      49.897888    
    921000   0.98945749     17.685705      49.604779    
    922000   1.0023805      17.894964      49.400374    
    923000   0.97906609     17.633303      49.508149    
    924000   0.96772427     18.140374      49.455061    
    925000   1.0153974      18.348346      49.504855    
    926000   1.0073703      17.548191      49.299809    
    927000   0.99099727     17.958979      49.192824    
    928000   0.99646671     17.731792      48.937009    
    929000   1.022578       17.325454      49.014757    
    930000   1.0079278      16.844562      48.716936    
    931000   0.99298563     17.709664      48.72275     
    932000   1.007846       18.157836      48.541437    
    933000   1.002477       17.698499      48.48069     
    934000   0.97614278     17.737738      48.317251    
    935000   0.98690027     17.478022      48.086347    
    936000   1.000727       17.785751      48.034743    
    937000   0.99339003     17.899618      48.034148    
    938000   0.96362783     17.921828      48.077775    
    939000   1.0124018      17.919575      48.183833    
    940000   0.9940841      17.138572      48.236787    
    941000   1.0111821      17.946343      48.251033    
    942000   1.0257332      17.971697      48.159174    
    943000   0.99476663     17.946442      48.203571    
    944000   1.0203723      18.465467      48.10068     
    945000   0.99309922     17.759613      47.874246    
    946000   0.99149262     17.660586      47.755422    
    947000   1.051367       17.868821      47.475416    
    948000   1.0211942      18.246972      47.243262    
    949000   0.98965664     18.010381      47.262719    
    950000   0.99557997     17.706941      47.270903    
    951000   0.9977229      17.892376      47.051306    
    952000   1.0626734      17.999836      47.188949    
    953000   0.98067232     17.692826      47.019083    
    954000   0.98244285     18.190231      46.994116    
    955000   0.95203788     17.575528      47.060519    
    956000   0.9721158      18.035018      46.985734    
    957000   0.95725063     18.181821      46.859909    
    958000   0.97764016     18.357059      46.691812    
    959000   0.98066291     17.675024      46.546135    
    960000   0.99922855     17.957357      46.244007    
    961000   1.0220755      18.119837      46.083988    
    962000   1.019477       17.627377      46.21174     
    963000   0.96820238     17.705609      45.992768    
    964000   0.98984151     17.767975      45.784792    
    965000   0.98621952     17.512684      45.778741    
    966000   1.0162144      17.362269      45.807534    
    967000   0.95021179     17.69248       45.7579      
    968000   1.0130867      18.028491      45.708318    
    969000   0.97847252     17.844011      45.717459    
    970000   0.98387983     17.532351      45.418506    
    971000   1.0249186      18.358968      45.297208    
    972000   0.99080797     17.647987      45.025829    
    973000   1.0182844      17.770132      44.944648    
    974000   0.97967225     18.298906      44.84251     
    975000   1.0271567      17.798582      44.839762    
    976000   1.0212388      18.466522      44.68606     
    977000   1.0134099      18.289021      44.399681    
    978000   0.97952462     17.944001      44.171776    
    979000   1.0090888      17.507264      43.92378     
    980000   1.0221383      17.754724      43.96981     
    981000   0.9979808      17.984381      43.819737    
    982000   0.96990878     17.410062      43.709818    
    983000   1.0000031      17.66423       43.60654     
    984000   1.0544488      17.771223      43.753305    
    985000   1.0495238      18.11805       43.53587     
    986000   1.0008049      17.679642      43.575748    
    987000   0.97163507     18.164619      43.277069    
    988000   0.98107823     17.580857      43.29118     
    989000   0.98549032     17.39113       43.269437    
    990000   1.0391456      18.56754       43.421059    
    991000   0.99188079     17.79648       43.117868    
    992000   0.99198636     17.701995      43.145429    
    993000   1.0245678      18.231708      42.915581    
    994000   1.0238413      17.486542      42.93322     
    995000   1.0035729      17.68127       42.866146    
    996000   1.029421       17.785413      42.668557    
    997000   0.99164186     17.591518      42.462031    
    998000   1.0459948      17.989251      42.417075    
    999000   1.0422299      18.115284      42.402315    
   1000000   1.0296429      17.756149      42.132052    
   1001000   0.98489244     17.115916      41.890937    
   1002000   1.0412248      17.478771      41.806183    
   1003000   0.94358818     17.672539      41.607791    
   1004000   1.0340943      17.539656      41.357047    
   1005000   0.98519998     17.464465      41.275577    
   1006000   1.0047906      18.228606      41.011496    
   1007000   1.0210583      17.863569      40.720161    
   1008000   1.0397895      17.207758      40.412318    
   1009000   1.0160252      18.13934       40.361983    
   1010000   0.99791753     17.324585      40.218595    
   1011000   1.048137       17.794187      40.012507    
   1012000   0.98084885     17.56482       39.984916    
   1013000   1.0633657      18.00986       39.859931    
   1014000   1.0160496      18.28414       39.718051    
   1015000   0.9925787      17.520991      39.506582    
   1016000   1.0056867      17.703051      39.488241    
   1017000   1.0344401      17.803096      39.535898    
   1018000   0.96940247     18.045919      39.39151     
   1019000   0.97583166     17.941655      39.239318    
   1020000   1.0159627      17.843211      38.992393    
   1021000   1.0266838      17.608612      38.680874    
   1022000   1.0144456      18.58444       38.625944    
   1023000   0.96529202     17.508418      38.425185    
   1024000   1.0077813      18.206871      38.29763     
   1025000   0.97818176     17.612285      38.27125     
   1026000   1.0015975      17.556926      38.140792    
   1027000   0.98056148     17.44219       37.915305    
   1028000   0.99210129     17.31647       37.800181    
   1029000   0.99031102     17.896157      37.565928    
   1030000   1.0245138      17.514688      37.419063    
   1031000   1.044968       17.852708      37.25962     
   1032000   0.97761605     17.740741      37.12901     
   1033000   1.0232652      18.201606      37.011274    
   1034000   1.0353439      17.537978      36.883455    
   1035000   1.0039672      17.730799      37.193047    
   1036000   0.98315345     17.868993      37.195859    
   1037000   0.98641928     17.516499      37.083454    
   1038000   1.0199232      17.294612      36.872295    
   1039000   0.97110973     18.098685      36.748702    
   1040000   1.0707227      17.876332      36.49902     
   1041000   0.98646673     17.534969      36.3896      
   1042000   1.030951       17.241386      36.228952    
   1043000   0.98408878     17.660666      36.185335    
   1044000   0.98488025     17.674012      36.0164      
   1045000   0.98939616     17.540483      35.679679    
   1046000   0.99629771     17.2671        35.41096     
   1047000   1.0284631      17.218583      35.614845    
   1048000   1.0135145      17.496253      35.430808    
   1049000   0.99071158     17.674868      35.424055    
   1050000   0.99680287     17.323406      35.207549    
   1051000   1.0139234      17.978007      34.982349    
   1052000   1.0004213      17.623907      34.517555    
   1053000   0.99946522     17.999558      34.34264     
   1054000   1.0528183      17.358778      34.009904    
   1055000   0.98390925     17.716336      33.994296    
   1056000   0.99896142     18.118602      33.898079    
   1057000   0.91654835     17.572541      33.965107    
   1058000   0.97363348     17.489663      33.731498    
   1059000   0.98342727     17.707848      33.396987    
   1060000   0.97011177     17.336334      33.571127    
   1061000   1.0224751      17.701117      33.432988    
   1062000   0.98083951     17.609376      33.35276     
   1063000   1.0074748      17.155819      33.31348     
   1064000   1.039176       17.2924        33.382915    
   1065000   1.0462831      17.315724      33.309341    
   1066000   1.0171325      17.579402      33.362853    
   1067000   1.0044486      17.646791      33.475435    
   1068000   1.041632       17.444103      33.400366    
   1069000   0.98333507     17.31511       33.49709     
   1070000   0.97646268     17.672459      33.275839    
   1071000   1.0122729      17.807972      33.035855    
   1072000   1.0119912      17.625217      33.085047    
   1073000   1.0283279      17.882678      32.967589    
   1074000   0.99059949     17.07008       32.967441    
   1075000   0.97602928     17.78874       32.798533    
   1076000   1.0001876      17.628474      32.789074    
   1077000   1.0773341      18.069233      32.658138    
   1078000   0.99466793     17.852514      32.472435    
   1079000   0.9765585      16.838352      32.524777    
   1080000   1.0077277      17.536152      32.222717    
   1081000   1.021116       18.143225      32.141308    
   1082000   1.0223861      17.499403      32.081762    
   1083000   0.96385694     17.160757      32.171418    
   1084000   0.98065736     17.625828      32.174742    
   1085000   0.99242657     17.641796      31.966932    
   1086000   0.99266502     17.299944      31.977681    
   1087000   0.96754238     17.149546      31.910593    
   1088000   1.0126978      17.551257      31.478564    
   1089000   0.99775667     17.393165      31.457384    
   1090000   0.98895569     17.502041      31.554796    
   1091000   1.0386861      17.593842      31.447625    
   1092000   0.99718331     17.322998      31.197369    
   1093000   1.0216197      17.355398      31.206304    
   1094000   1.0141016      17.757079      31.094387    
   1095000   1.0148303      17.589737      30.923709    
   1096000   0.98871        17.756977      30.703764    
   1097000   1.0305798      17.209412      30.72099     
   1098000   0.97327634     17.165897      30.601461    
   1099000   1.0126711      17.535081      30.34192     
   1100000   1.0309654      17.613541      30.212267    
   1101000   0.97443272     18.102098      30.393251    
   1102000   0.98457054     17.500172      30.258244    
   1103000   1.0005624      17.761309      30.08455     
   1104000   1.0363989      17.181954      29.958893    
   1105000   1.0105341      17.666452      29.787313    
   1106000   1.0588604      17.32821       29.833515    
   1107000   1.0292269      17.461772      29.600652    
   1108000   1.0192269      17.664241      29.550174    
   1109000   0.9948439      16.708727      29.349354    
   1110000   1.0232352      17.746254      29.192742    
   1111000   1.0522553      17.903993      29.157283    
   1112000   0.99791223     17.331119      29.132777    
   1113000   1.015587       18.010909      29.210583    
   1114000   1.0457079      17.800922      29.120824    
   1115000   0.98870574     17.493061      29.096678    
   1116000   1.0102729      17.407508      29.286147    
   1117000   0.93795504     16.891619      29.259314    
   1118000   1.0306343      17.647367      29.170162    
   1119000   0.97088469     17.154866      29.038759    
   1120000   0.98637028     17.736084      28.956179    
   1121000   1.0094612      17.711309      28.82935     
   1122000   0.97020964     17.588925      28.751058    
   1123000   1.0142345      17.830353      28.598713    
   1124000   1.0058662      17.54023       28.593737    
   1125000   1.0067624      17.626937      28.502388    
   1126000   1.0447103      17.72707       28.411137    
   1127000   1.0213007      17.456102      28.421008    
   1128000   1.0079357      16.816952      28.307727    
   1129000   1.0069917      17.886893      28.23684     
   1130000   0.9719155      18.840043      28.193735    
   1131000   0.92563857     17.010559      28.154176    
   1132000   0.96637175     17.570453      27.886018    
   1133000   0.96954168     17.489266      27.922726    
   1134000   1.0325815      17.395025      28.060583    
   1135000   0.96851243     17.250438      27.823148    
   1136000   0.95362205     17.513802      27.81632     
   1137000   0.97962476     17.505361      27.725175    
   1138000   1.001435       17.773989      27.582648    
   1139000   0.98168831     17.646276      27.49755     
   1140000   0.95616235     17.264882      27.393521    
   1141000   0.98288281     17.167114      27.197168    
   1142000   0.98869736     17.76444       26.914193    
   1143000   0.99441609     17.328555      26.789401    
   1144000   0.99502431     17.617657      26.489272    
   1145000   0.99223847     17.965861      26.554823    
   1146000   0.95957057     17.900946      26.559927    
   1147000   1.0590962      17.893859      26.4097      
   1148000   0.97980676     16.823258      26.418487    
   1149000   1.0178435      17.278696      26.260625    
   1150000   0.99377932     17.288032      26.082074    
   1151000   0.9990729      17.225828      26.023893    
   1152000   0.95476324     17.339092      26.316736    
   1153000   0.9982237      17.561103      26.382871    
   1154000   0.99341951     17.245017      26.317082    
   1155000   0.93928104     17.316816      26.020826    
   1156000   1.0580249      17.554168      25.833512    
   1157000   1.0061333      17.642502      25.770227    
   1158000   0.99138942     17.512734      25.787872    
   1159000   0.98290918     17.2648        25.623938    
   1160000   0.97170825     17.52309       25.321097    
   1161000   1.0124055      17.435245      24.943479    
   1162000   0.99189009     17.61285       24.975888    
   1163000   0.99033261     17.72302       24.783069    
   1164000   0.98890877     17.599534      24.448221    
   1165000   1.0033994      17.690051      24.254895    
   1166000   0.99328996     17.202417      23.929747    
   1167000   0.9904237      17.730322      23.620551    
   1168000   0.9996519      17.381794      23.533448    
   1169000   0.98917125     17.734759      23.413756    
   1170000   0.98117363     17.977018      23.463943    
   1171000   1.0399728      18.04578       23.347222    
   1172000   1.0152334      17.446548      23.268535    
   1173000   1.0112091      17.605183      23.212912    
   1174000   0.99719262     17.625944      23.034741    
   1175000   1.0182977      16.998226      22.915065    
   1176000   0.98898322     17.332284      22.946951    
   1177000   0.96408909     16.869949      22.883152    
   1178000   1.0391168      17.073897      22.750438    
   1179000   1.0041394      17.452468      22.645971    
   1180000   0.98016759     17.190677      22.378224    
   1181000   1.0291096      17.397624      22.360098    
   1182000   0.98142699     17.536381      22.339603    
   1183000   1.004647       17.391741      22.394105    
   1184000   1.0039882      17.352846      22.379781    
   1185000   0.97981521     17.550085      22.289654    
   1186000   0.9431755      17.491676      22.114174    
   1187000   0.95348535     17.319205      21.94399     
   1188000   0.99496183     16.816761      21.687498    
   1189000   1.0170038      17.713759      21.432111    
   1190000   0.99094736     17.214643      21.549565    
   1191000   0.97785894     17.267204      21.33728     
   1192000   1.0047549      17.471753      21.280839    
   1193000   1.0293727      17.732547      21.306366    
   1194000   1.0183718      17.14321       21.317127    
   1195000   0.96856262     17.272099      20.99471     
   1196000   1.0186992      17.525145      20.845793    
   1197000   0.98248632     17.415145      20.733529    
   1198000   0.98259114     17.497092      20.563624    
   1199000   1.0146171      17.186669      20.31486     
   1200000   1.046806       17.107342      20.060614    
   1201000   0.99715715     17.47884       20.00507     
   1202000   1.00108        17.344827      20.037246    
   1203000   0.97048292     17.675439      20.083606    
   1204000   1.0135094      18.225249      20.176085    
   1205000   1.0009267      17.234358      20.076732    
   1206000   0.96832087     17.669256      20.059828    
   1207000   1.0590149      17.437962      19.880858    
   1208000   1.0031049      17.72527       19.823487    
   1209000   0.9972358      17.628956      19.703932    
   1210000   1.0207727      17.271511      19.361296    
   1211000   0.99705377     17.802834      18.945572    
   1212000   1.0280602      17.380535      18.90505     
   1213000   0.99618481     17.379016      18.952822    
   1214000   1.0144712      17.665462      18.685125    
   1215000   1.0114617      17.212929      18.778987    
   1216000   1.0228465      17.847229      18.676876    
   1217000   0.97370768     17.493135      18.655683    
   1218000   1.0414269      17.993708      18.598952    
   1219000   1.01047        17.007124      18.627776    
   1220000   1.007048       17.11984       18.375477    
   1221000   0.94265111     16.874091      18.451151    
   1222000   1.0199496      17.554535      18.360841    
   1223000   0.99221448     16.959778      18.082451    
   1224000   0.99002831     17.371838      17.981604    
   1225000   1.0300365      17.533621      17.937646    
   1226000   0.99131173     17.493426      17.818569    
   1227000   1.0277729      17.718237      17.820955    
   1228000   1.0158507      17.618618      17.60169     
   1229000   1.0213515      17.289996      17.324673    
   1230000   1.0251082      17.964084      17.301105    
   1231000   1.0045496      17.701224      17.047279    
   1232000   0.98725422     17.522087      16.933169    
   1233000   1.0510477      17.49135       16.961293    
   1234000   1.0052195      16.962628      16.920708    
   1235000   1.0096956      18.030014      16.798845    
   1236000   1.0163114      17.60271       16.878338    
   1237000   1.0104544      17.166403      16.90357     
   1238000   0.98900229     17.113453      16.612772    
   1239000   1.0127815      17.58487       16.660554    
   1240000   1.0403652      17.770121      16.704202    
   1241000   0.99619602     17.295807      16.664685    
   1242000   1.0581803      17.41318       16.487486    
   1243000   1.0280033      17.74756       16.335524    
   1244000   1.0046927      17.151283      16.121335    
   1245000   1.0152108      16.818442      16.027529    
   1246000   0.99951828     17.196367      15.886258    
   1247000   0.96998697     17.413867      15.639087    
   1248000   0.97885837     18.016474      15.578643    
   1249000   0.98506023     17.556925      15.657566    
   1250000   1.0025118      17.551041      15.58896     
   1251000   1.0042404      17.415461      15.527721    
   1252000   0.99779622     17.776246      15.475006    
   1253000   0.98299093     17.532633      15.382424    
   1254000   0.94639824     17.277193      15.133805    
   1255000   1.0067795      17.561534      15.096891    
   1256000   1.0113444      17.047123      15.125868    
   1257000   1.0612596      16.785003      15.047222    
   1258000   1.0014584      17.282766      15.012068    
   1259000   0.99632465     17.221001      14.73963     
   1260000   1.0615293      17.317848      14.668115    
   1261000   0.97609357     17.671903      14.404148    
   1262000   1.0023827      17.335547      14.294704    
   1263000   1.0164637      16.930154      14.147736    
   1264000   0.99056385     16.711692      14.083036    
   1265000   0.9946976      17.002513      14.036808    
   1266000   1.0468762      17.712371      13.909791    
   1267000   0.98021716     17.634123      13.904336    
   1268000   1.0323777      17.540059      13.973928    
   1269000   1.0118605      17.349914      13.810413    
   1270000   1.0314147      17.051643      13.717697    
   1271000   0.9994567      17.009762      13.880456    
   1272000   0.97151473     16.942609      13.771108    
   1273000   1.0313328      17.07745       13.523666    
   1274000   1.0156117      17.292115      13.31635     
   1275000   0.97086957     17.098437      13.075548    
   1276000   0.96320943     16.876757      12.8608      
   1277000   1.0819447      17.962598      12.822982    
   1278000   0.99620957     16.612696      12.65685     
   1279000   1.0023975      17.891024      12.562252    
   1280000   1.0037307      17.054187      12.475851    
   1281000   0.94800437     17.596857      12.38495     
   1282000   0.97559244     16.458141      12.467996    
   1283000   1.0157422      17.194176      12.217622    
   1284000   0.97784505     16.912391      12.187587    
   1285000   0.98287596     17.62998       12.082287    
   1286000   0.9668923      17.418032      12.30774     
   1287000   0.96489058     16.962341      12.249001    
   1288000   0.96641676     17.529411      12.392336    
   1289000   1.0192234      17.574133      12.355423    
   1290000   0.97305787     17.228253      12.348211    
   1291000   1.026371       17.136951      12.317879    
   1292000   0.96593266     16.728736      12.304686    
   1293000   1.0172755      17.146809      12.217262    
   1294000   1.0308343      17.029162      12.115874    
   1295000   1.0166881      17.512012      12.327425    
   1296000   0.97709921     17.078178      12.277675    
   1297000   0.99960507     16.684753      12.291259    
   1298000   1.0166563      16.837974      12.017223    
   1299000   1.0268032      17.521531      12.045035    
   1300000   0.9904847      17.000699      11.954048    
   1301000   1.035418       17.794694      11.795155    
   1302000   0.98505181     16.578565      11.885578    
   1303000   1.0123423      17.463839      12.047486    
   1304000   0.99596162     17.118913      12.067641    
   1305000   0.98043531     16.792176      12.204197    
   1306000   1.010399       17.279755      12.022088    
   1307000   1.0060893      16.897616      11.950467    
   1308000   0.96851579     16.315667      11.661983    
   1309000   0.99136489     17.046493      11.79489     
   1310000   0.97702369     16.939927      11.88924     
   1311000   0.99810955     17.216823      11.948315    
   1312000   0.93693711     17.00183       11.878962    
   1313000   0.98510889     17.141269      11.826471    
   1314000   0.9760191      16.964384      11.693247    
   1315000   0.9858661      16.702122      11.62234     
   1316000   0.98831618     17.290722      11.539647    
   1317000   1.0207074      16.610174      11.440802    
   1318000   0.99377159     16.850461      11.517422    
   1319000   0.985271       16.817542      11.357942    
   1320000   0.98693228     17.118147      11.236615    
   1321000   0.99464525     17.388436      11.266875    
   1322000   1.0141402      16.501818      11.302721    
   1323000   1.0242673      17.247554      11.4604      
   1324000   1.0352494      16.931957      11.674193    
   1325000   1.0030772      16.637366      11.690995    
   1326000   0.9812569      16.585279      11.751146    
   1327000   0.98370789     16.851547      11.950826    
   1328000   0.99855898     16.726628      11.935932    
   1329000   0.95219011     17.125877      11.956714    
   1330000   1.0170311      17.505328      11.923194    
   1331000   0.99741224     16.692597      11.787248    
   1332000   0.97033165     16.933775      11.726184    
   1333000   0.99671169     16.850702      11.678141    
   1334000   0.98037881     17.130309      11.432539    
   1335000   1.0072882      17.36857       11.364124    
   1336000   0.98325462     17.069725      11.481128    
   1337000   1.0083339      17.04913       11.458972    
   1338000   1.0155142      17.229142      11.527252    
   1339000   0.9912609      16.862362      11.749633    
   1340000   1.0354385      16.904014      11.668309    
   1341000   0.99413082     16.85545       11.625273    
   1342000   1.0344391      16.84863       11.447565    
   1343000   1.0309343      17.062952      11.310322    
   1344000   0.98992257     16.605685      11.139849    
   1345000   1.0303373      17.553674      11.052603    
   1346000   0.98727034     16.94284       11.076248    
   1347000   0.97812012     16.35055       11.213623    
   1348000   0.97020107     17.382693      11.175069    
   1349000   0.99385109     17.1535        11.15707     
   1350000   0.99620764     17.267132      11.173147    
   1351000   1.0169273      17.673638      11.020999    
   1352000   0.95718074     17.190722      10.946934    
   1353000   1.0118357      17.579622      10.973032    
   1354000   0.95888513     17.36809       10.775723    
   1355000   1.0093299      17.418276      10.479194    
   1356000   1.0260097      17.087226      10.414113    
   1357000   0.97220068     16.919674      10.350214    
   1358000   0.96521038     17.191533      10.216793    
   1359000   1.0074177      16.893443      10.079906    
   1360000   1.0128076      17.456559      10.016126    
   1361000   1.0355846      16.946166      9.9751452    
   1362000   1.0296203      17.39555       10.038616    
   1363000   0.99726547     16.622998      9.9374301    
   1364000   0.97640479     17.042815      9.984011     
   1365000   1.0134897      17.24454       10.145447    
   1366000   0.97768678     16.622826      10.083732    
   1367000   0.96360356     17.332485      9.9938964    
   1368000   1.0378425      17.019143      10.011688    
   1369000   1.0170518      17.42181       9.8567986    
   1370000   1.0101661      17.481186      9.9395988    
   1371000   1.0730368      17.390104      9.8708098    
   1372000   0.99136347     16.891582      9.7584092    
   1373000   1.0040086      17.625204      9.7379902    
   1374000   0.99839734     17.372564      9.811915     
   1375000   0.99602261     17.148668      9.7699188    
   1376000   1.0370228      17.177483      10.067812    
   1377000   1.036351       17.511331      9.9433481    
   1378000   0.96288369     17.142592      9.9065587    
   1379000   1.0127636      16.984903      9.8106576    
   1380000   0.98885865     17.000486      9.7416205    
   1381000   1.0318981      16.941867      9.5566666    
   1382000   1.0202037      16.734826      9.537485     
   1383000   0.98202155     17.212262      9.6382913    
   1384000   1.0076362      16.994206      9.5465313    
   1385000   1.0321341      16.989227      9.44838      
   1386000   1.0098798      17.689853      9.3046578    
   1387000   1.0266154      17.476511      9.2566792    
   1388000   1.0024386      16.675492      9.2729236    
   1389000   0.94894728     17.300508      9.2225141    
   1390000   0.98209072     17.156727      8.995056     
   1391000   1.0051034      16.876408      8.8934463    
   1392000   0.99475118     17.120055      8.6363597    
   1393000   1.0102622      17.48855       8.5395956    
   1394000   1.0013916      17.118658      8.355756     
   1395000   1.032103       17.418822      8.2436092    
   1396000   1.0004918      16.981865      7.893606     
   1397000   1.0016554      16.83626       7.8142862    
   1398000   0.95966917     16.483176      7.6987909    
   1399000   1.0016643      17.255122      7.5918613    
   1400000   0.98864897     16.445519      7.4506224    
   1401000   0.99241017     16.87039       7.34706      
   1402000   1.0075405      17.4641        7.3237921    
Fix halt condition for fix-id 3 met on step 1403000 with value 6.911437624414821 (src/fix_halt.cpp:237)
   1403000   1.0247017      17.150947      6.9114376    
Loop time of 1880.48 on 2 procs for 1303000 steps with 1000 atoms

Performance: 598674.088 tau/day, 692.910 timesteps/s
118.3% CPU use with 1 MPI tasks x 2 OpenMP threads

MPI task timing breakdown:
Section |  min time  |  avg time  |  max time  |%varavg| %total
---------------------------------------------------------------
Pair    | 386.86     | 386.86     | 386.86     |   0.0 | 20.57
Bond    | 34.067     | 34.067     | 34.067     |   0.0 |  1.81
Neigh   | 1370.6     | 1370.6     | 1370.6     |   0.0 | 72.88
Comm    | 0.5265     | 0.5265     | 0.5265     |   0.0 |  0.03
Output  | 4.9231     | 4.9231     | 4.9231     |   0.0 |  0.26
Modify  | 78.334     | 78.334     | 78.334     |   0.0 |  4.17
Other   |            | 5.188      |            |       |  0.28

Nlocal:           1000 ave        1000 max        1000 min
Histogram: 1 0 0 0 0 0 0 0 0 0
Nghost:              0 ave           0 max           0 min
Histogram: 1 0 0 0 0 0 0 0 0 0
Neighs:         210336 ave      210336 max      210336 min
Histogram: 1 0 0 0 0 0 0 0 0 0

Total # of neighbors = 210336
Ave neighs/atom = 210.336
Ave special neighs/atom = 1.998
Neighbor list builds = 12586
Dangerous builds = 0

# This simulation is done
# Move onto the next one
clear
  using 2 OpenMP thread(s) per MPI task
package omp 0
using multi-threaded neighbor list subroutines
next f
jump SELF

###
# Reference paper:
# K. Kremer and G. S. Grest
# Dynamics of entangled linear polymer melts: A molecular-dynamics simulation
# J Chem Phys 92, 5057 (1990)

##################################
# MIHIR: for branched polymers
# LJ minimum first to expand and explore, then collapse
###

###
# Looping through the various N1B3 polymers to simulate,
# define variables to switch through
#variable f index bb66nuc1bl33bn3d30tot100 bb133nuc1bl66bn3d30tot200 bb200nuc1bl100bn3d30tot300 bb266nuc1bl133bn3d30tot400 bb333nuc1bl166bn3d30tot500 bb400nuc1bl200bn3d30tot600 bb466nuc1bl233bn3d30tot700 bb533nuc1bl266bn3d30tot800 bb600nuc1bl300bn3d30tot900 bb666nuc1bl333bn3d30tot1000 bb733nuc1bl366bn3d30tot1100 bb800nuc1bl400bn3d30tot1200
# variable f index bb66nuc1bl33bn3d30tot100V3 bb133nuc1bl66bn3d30tot200V3 bb200nuc1bl100bn3d30tot300V3 bb266nuc1bl133bn3d30tot400V3 bb333nuc1bl166bn3d30tot500V3 bb400nuc1bl200bn3d30tot600V3 bb466nuc1bl233bn3d30tot700V3 bb533nuc1bl266bn3d30tot800V3 bb600nuc1bl300bn3d30tot900V3 bb666nuc1bl333bn3d30tot1000V3 bb733nuc1bl366bn3d30tot1100V3 bb800nuc1bl400bn3d30tot1200V3
variable f index bb66nuc1bl33bn3d30tot100V2 bb133nuc1bl66bn3d30tot200V2 bb200nuc1bl100bn3d30tot300V2 bb266nuc1bl133bn3d30tot400V2 bb333nuc1bl166bn3d30tot500V2 bb400nuc1bl200bn3d30tot600V2 bb466nuc1bl233bn3d30tot700V2 bb533nuc1bl266bn3d30tot800V2 bb600nuc1bl300bn3d30tot900V2 bb666nuc1bl333bn3d30tot1000V2 bb733nuc1bl366bn3d30tot1100V2 bb800nuc1bl400bn3d30tot1200V2
#variable f index bb733nuc1bl366bn3d30tot1100V2 bb800nuc1bl400bn3d30tot1200V2
###


###
# Box and units  (use LJ units and periodic boundaries)
###

units lj
log N1B3/trial2/logs3/$f.log
log N1B3/trial2/logs3/bb733nuc1bl366bn3d30tot1100V2.log
