#atom_style bond #no stiffness
atom_style angle #with stiffness

boundary        p p p
###
# Pair interactions require lists of neighbours to be calculated
###

#neighbor 0.3 bin
neighbor 4 bin

neigh_modify every 1 delay 1 check yes
atom_modify sort 0 0
### Generate RESTART file, SPECIAL format, not a .txt file ###
### Useful if simulation crashes ###

restart 1000000 N1B3/trial2/restarts2/$f.restart
restart 1000000 N1B3/trial2/restarts2/bb333nuc1bl166bn3d30tot500V2.restart
#############################



### READ "start" data file ###

read_data N1B3/trial2/dats2/$f.dat
read_data N1B3/trial2/dats2/bb333nuc1bl166bn3d30tot500V2.dat
Reading data file ...
  orthogonal box = (-1000 -1000 -1000) to (1000 1000 1000)
  1 by 1 by 1 MPI processor grid
  reading atoms ...
  499 atoms
  scanning bonds ...
  2 = max bonds/atom
  scanning angles ...
  3 = max angles/atom
  reading bonds ...
  498 bonds
  reading angles ...
  498 angles
Finding 1-2 1-3 1-4 neighbors ...
  special bond factors lj:    0        0        0       
  special bond factors coul:  0        0        0       
     3 = max # of 1-2 neighbors
     3 = max # of 1-3 neighbors
     6 = max # of 1-4 neighbors
     9 = max # of special neighbors
  special bonds CPU = 0.001 seconds
  read_data CPU = 0.093 seconds

######################

### READ "REstart" data file ###

######################



###
# Define groups (atom type 1 is group 'all')
###
group all type 1
499 atoms in group all


###
# Dump configs - "simple dumpings"
###

###
# Dump configs + box coords
###

dump   1   all   custom   1000  N1B3/trial2/trjs2/$f.lammpstrj  id  x y z  ix iy iz
dump   1   all   custom   1000  N1B3/trial2/trjs2/bb333nuc1bl166bn3d30tot500V2.lammpstrj  id  x y z  ix iy iz
dump_modify   1   format line "%d %.5f %.5f %.5f %d %d %d"

########################################################################


###################################################################
# Stiffness term
#
# E = K * (1+cos(theta)), K>0
#
angle_style   cosine
#change this coefficient to change stiffness (e.g. 1,5,10)
angle_coeff   1 1.0
###################################################################

###################################################################
# Pair interaction between non-bonded atoms
#
#  Lennard-Jones 12-6 potential with cutoff:
#  potential E=4epsilon[ (sigma/r)^12 - (sigma/r)^6]  for r<r_cut
#
#  1.12246 = 2^(1/6) is the minimum of the potential


pair_style      lj/cut 1.12246152962189
#pair_style      lj/cut 3

#
#  pair_modify shift yes adds a constant to the potential such

#  that E(r_cut)=0. Forces remains unchanged.
#

pair_modify     shift yes

#
#  pair_coeff for lj/cut, specify 4:
#    * atom type interacting with
#    * atom type
#    * epsilon (energy units)
#    * sigma (distance units)
#

pair_coeff      1 1 1.0 1.0
###################################################################

###################################################################
# Pair interaction between non-bonded atoms
#
#  soft potential, for PUSHING apart overlapping atoms
#  potential E=A*(1 + cos(pi*r/r_c))
#
#  1.12246 = 2^(1/6) is the cut-off r_c

#pair_style     soft 1.12246152962189

#
#  pair_coeff for soft, specify 3:
#    * atom type interacting with
#    * atom type
#    * A
#
#

#pair_coeff      1 1 100.0
###################################################################

###################################################################
# Pair interaction between bonded atoms
#
# Fene potential + Lennard Jones 12-6:

#
#  E= - 0.5 K R0^2 ln[ 1- (r/R0)^2]
#     + 4epsilon[ (sigma/r)^12 - (sigma/r)^6] + epsilon
#

bond_style   fene


#
# For style fene, specify:
#   * bond type
#   * K (energy/distance^2)
#   * R0 (distance)
#   * epsilon (energy)  (LJ component)
#   * sigma (distance)  (LJ component)
#


special_bonds fene #<=== I M P O R T A N T (new command)
Finding 1-2 1-3 1-4 neighbors ...
  special bond factors lj:    0        1        1       
  special bond factors coul:  0        1        1       
     3 = max # of 1-2 neighbors
     9 = max # of special neighbors
  special bonds CPU = 0.001 seconds

bond_coeff   1   30   2   1.0   1.0


###################################################

###################################################################
# Pair interaction between bonded atoms
#
# Harmonic potential:
#
#  E= K * (R-R0)^2
#

#bond_style   harmonic

#
# For style harmonic, specify:
#   * bond type
#   * K (energy/distance^2)
#   * R0 (distance)
#

#bond_coeff   1   60.0   1.0
#bond_coeff   2   harmonic 0.1   1.0

###################################################
compute 1 all gyration
variable rog equal c_1
#compute 2 all coord/atom cutoff 1.1

#dump 2 all custom 10000 contact_number.dump id c_2


###
# Set up fixes
###
thermo_style   custom   step  temp enthalpy c_1
fix 1 all nve   ###NVE ensemble

fix 2 all   langevin   1.0 1.0 1.0  778655   ###Langevin integrator Tstart Tstop 1/friction rndseed


##### Sample thermodynamic info  (temperature, energy, pressure, etc.) #####
thermo 1000









############################################################################

###
# set timestep of integrator

timestep 0.01

###
# run integration for a number of steps
###
#run 0
#variable r equal c_1
#if "$r < 63.1" then "quit 1"

# lj potential minimum, cause molecule to explore
run 100000
Generated 0 of 0 mixed pair_coeff terms from geometric mixing rule
Last active /omp style is angle_style cosine/omp
Neighbor list info ...
  update: every = 1 steps, delay = 1 steps, check = yes
  max neighbors/atom: 2000, page size: 100000
  master list distance cutoff = 5.1224615
  ghost atom cutoff = 5.1224615
  binsize = 2.5612308, bins = 781 781 781
  1 neighbor lists, perpetual/occasional/extra = 1 0 0
  (1) pair lj/cut/omp, perpetual
      attributes: half, newton on, omp
      pair build: half/bin/newton/omp
      stencil: half/bin/3d
      bin: standard
WARNING: Communication cutoff 5.12246152962189 is shorter than a bond length based estimate of 5.455. This may lead to errors. (src/comm.cpp:723)
Per MPI rank memory allocation (min/avg/max) = 1860 | 1860 | 1860 Mbytes
   Step          Temp         Enthalpy         c_1      
         0   0              13.17489       88.507105    
      1000   1.0325789      17.58731       87.56275     
      2000   1.0120585      18.067873      86.385146    
      3000   0.9369732      18.719954      85.422319    
      4000   1.0128833      17.942767      84.794203    
      5000   1.0161607      18.839848      84.309913    
      6000   1.0045407      18.859255      83.535115    
      7000   1.0163494      19.166849      82.746522    
      8000   0.95525327     18.75443       82.26724     
      9000   1.0119451      18.183022      81.907489    
     10000   1.0258621      19.202741      81.358374    
     11000   0.99386698     18.975865      80.735753    
     12000   0.99204217     18.892685      80.134987    
     13000   0.99650661     18.981317      79.65723     
     14000   0.95700502     19.254059      79.07961     
     15000   1.0062469      19.323901      78.698517    
     16000   1.0176329      19.31382       78.288906    
     17000   1.0149526      19.17995       78.016987    
     18000   1.0559457      20.078312      77.401468    
     19000   1.0666979      19.596458      77.312091    
     20000   1.0027671      19.328024      76.949703    
     21000   1.0194932      19.900931      76.414457    
     22000   0.99688377     19.608949      75.985351    
     23000   1.0129582      19.911581      75.868504    
     24000   1.033956       19.491424      75.512889    
     25000   0.9915517      20.657161      75.17322     
     26000   0.99732959     20.044943      74.895097    
     27000   0.99644425     19.321752      74.883736    
     28000   1.0403617      20.426892      74.419196    
     29000   1.0411564      19.175319      74.362973    
     30000   1.0351375      19.659136      73.980998    
     31000   1.0222412      19.872777      73.766121    
     32000   0.98907797     19.288002      73.345474    
     33000   0.96575001     19.01619       72.754166    
     34000   1.0280817      19.272262      72.380125    
     35000   1.0761936      19.660945      71.985682    
     36000   1.0186459      20.076987      71.665298    
     37000   1.0224834      19.864268      71.496902    
     38000   1.0064555      19.405357      70.922916    
     39000   0.98886619     20.663654      70.824511    
     40000   1.0290266      19.115405      70.678036    
     41000   0.97973085     19.893879      70.393341    
     42000   0.99457209     19.657886      69.954876    
     43000   0.99597231     19.704611      69.661167    
     44000   0.97698245     19.832814      69.383488    
     45000   1.0174538      20.465148      69.125815    
     46000   1.0412734      20.021473      69.021492    
     47000   0.98465862     19.536822      68.910463    
     48000   0.99018095     19.980706      68.735063    
     49000   0.98068312     20.364991      68.624144    
     50000   1.0210759      20.101711      68.446524    
     51000   1.0013214      19.972111      68.342545    
     52000   0.98315172     20.333204      68.139768    
     53000   1.0218953      20.166517      67.817773    
     54000   1.0052649      20.398238      67.69941     
     55000   0.99029698     19.781141      67.632673    
     56000   1.0026104      20.182224      67.684439    
     57000   1.0265924      20.291861      67.536978    
     58000   0.99746406     20.622199      67.033681    
     59000   1.003777       20.463152      66.846461    
     60000   0.95735259     20.400467      66.799266    
     61000   0.99043416     19.816046      66.719639    
     62000   0.98249579     19.759057      66.386911    
     63000   1.0330924      20.385136      66.218779    
     64000   1.0227607      19.707973      65.94        
     65000   0.99418306     19.983166      65.854854    
     66000   0.99883213     19.958643      65.525883    
     67000   0.96424148     19.757117      65.334531    
     68000   1.0482088      20.272799      65.073322    
     69000   1.0156222      19.767567      65.010505    
     70000   1.0438982      20.22531       65.018924    
     71000   0.98111233     20.740594      64.767712    
     72000   0.95206344     19.28994       64.490474    
     73000   0.9989014      20.449573      64.311492    
     74000   0.96053498     20.034754      63.955865    
     75000   1.0290312      19.86435       63.624097    
     76000   0.94781668     19.465246      63.336264    
     77000   0.99433443     20.875882      63.229063    
     78000   1.0319937      20.007841      62.808498    
     79000   1.035847       19.687948      62.705091    
     80000   0.96937681     21.030907      62.79137     
     81000   0.99077282     20.046022      62.928558    
     82000   0.99546155     20.306899      62.733741    
     83000   0.95478935     20.230864      62.420693    
     84000   0.9999818      20.425823      62.005098    
     85000   1.0062889      20.177673      61.852666    
     86000   0.95699952     20.14547       61.859658    
     87000   0.97437364     20.177611      61.841698    
     88000   1.0448961      20.451542      61.647892    
     89000   1.0068722      19.68864       61.61494     
     90000   1.0330031      20.835067      61.246661    
     91000   0.97230914     20.22376       61.07024     
     92000   0.94365479     20.311006      60.738679    
     93000   1.0196766      19.86813       60.599702    
     94000   1.0826889      20.297945      60.495832    
     95000   0.97542069     20.256334      60.613333    
     96000   1.0212272      20.106552      60.341225    
     97000   1.0233824      20.218316      60.346262    
     98000   0.99663629     19.580635      60.085558    
     99000   1.0850039      20.152045      60.018886    
    100000   1.0326573      20.488576      59.751874    
Loop time of 281.948 on 2 procs for 100000 steps with 499 atoms

Performance: 306439.696 tau/day, 354.676 timesteps/s
101.9% CPU use with 1 MPI tasks x 2 OpenMP threads

MPI task timing breakdown:
Section |  min time  |  avg time  |  max time  |%varavg| %total
---------------------------------------------------------------
Pair    | 0.53215    | 0.53215    | 0.53215    |   0.0 |  0.19
Bond    | 1.0703     | 1.0703     | 1.0703     |   0.0 |  0.38
Neigh   | 277.59     | 277.59     | 277.59     |   0.0 | 98.45
Comm    | 0.021515   | 0.021515   | 0.021515   |   0.0 |  0.01
Output  | 0.22913    | 0.22913    | 0.22913    |   0.0 |  0.08
Modify  | 2.3411     | 2.3411     | 2.3411     |   0.0 |  0.83
Other   |            | 0.1649     |            |       |  0.06

Nlocal:            499 ave         499 max         499 min
Histogram: 1 0 0 0 0 0 0 0 0 0
Nghost:              0 ave           0 max           0 min
Histogram: 1 0 0 0 0 0 0 0 0 0
Neighs:           2989 ave        2989 max        2989 min
Histogram: 1 0 0 0 0 0 0 0 0 0

Total # of neighbors = 2989
Ave neighs/atom = 5.98998
Ave special neighs/atom = 1.995992
Neighbor list builds = 1047
Dangerous builds = 0

# Replace lj potential, now collapse
pair_style      lj/cut 3

# Cutoff simul when gyration under 7
# Variable created with equal requires v_ + 'name'
fix 3 all halt 1000 v_rog < 7

run 5000000
Generated 0 of 0 mixed pair_coeff terms from geometric mixing rule
Last active /omp style is angle_style cosine/omp
Per MPI rank memory allocation (min/avg/max) = 1860 | 1860 | 1860 Mbytes
   Step          Temp         Enthalpy         c_1      
    100000   1.0326573      19.822097      59.751874    
    101000   0.97556156     19.829756      59.604061    
    102000   1.0217549      19.531475      59.021528    
    103000   1.0065954      20.181905      59.026572    
    104000   1.0375078      20.085058      58.463989    
    105000   1.0065464      19.904814      58.210288    
    106000   1.0376966      19.329073      58.095989    
    107000   0.97597272     19.419428      57.755413    
    108000   1.0508275      19.914875      57.478043    
    109000   0.98120358     19.481333      57.183562    
    110000   0.99657226     19.816319      57.267944    
    111000   0.98149198     19.359252      57.135776    
    112000   1.0264996      19.821353      56.884778    
    113000   0.96708309     19.542981      56.78794     
    114000   1.0458435      19.061007      57.089711    
    115000   1.0075249      19.26644       56.772609    
    116000   0.97478133     19.24249       56.820704    
    117000   0.99419049     19.607078      56.497721    
    118000   1.007413       18.940819      56.036195    
    119000   0.96664369     18.777164      55.909007    
    120000   1.0058264      19.547605      55.501738    
    121000   1.0033438      19.454751      55.107955    
    122000   1.0263305      19.220959      54.916602    
    123000   1.0227619      19.639817      55.114611    
    124000   0.9693068      19.469262      54.710295    
    125000   1.0266255      19.350903      54.255849    
    126000   0.92768661     18.668234      53.936319    
    127000   0.97827479     19.461079      53.59657     
    128000   0.95373032     19.637076      53.260809    
    129000   1.0250918      19.17703       53.280018    
    130000   0.98583033     19.445447      53.272743    
    131000   1.0770535      19.434827      53.309648    
    132000   0.98841445     18.976957      52.950493    
    133000   1.0005976      19.593633      52.773786    
    134000   1.0764079      20.155672      52.548927    
    135000   0.98495504     19.537778      52.204958    
    136000   0.99387866     19.083896      51.901312    
    137000   1.0076644      19.601338      51.483104    
    138000   1.0206542      18.724957      51.334893    
    139000   1.0160445      19.10846       50.790381    
    140000   1.02262        18.273191      50.904308    
    141000   1.0381003      18.773988      50.353404    
    142000   0.99198033     19.406474      50.082832    
    143000   0.94911799     19.307193      50.076804    
    144000   1.0868791      19.417561      50.163607    
    145000   1.0447286      19.251029      49.635403    
    146000   1.0334188      18.744221      49.237599    
    147000   1.0127915      18.58584       48.98184     
    148000   0.96220484     19.424001      48.932915    
    149000   0.98725093     18.24281       48.783702    
    150000   1.0100897      19.160917      48.12641     
    151000   0.97767916     19.697331      47.750682    
    152000   0.99651528     18.473381      47.662818    
    153000   1.0017284      18.683966      47.680724    
    154000   0.98263689     19.447959      47.248907    
    155000   0.96590319     18.746669      46.855668    
    156000   0.96151064     19.913001      47.153422    
    157000   1.0097452      19.273388      47.140142    
    158000   0.95487448     18.51377       47.146831    
    159000   0.99366315     18.582216      47.126166    
    160000   0.99568313     18.761553      47.16515     
    161000   1.022477       18.794432      46.858591    
    162000   1.0350179      18.465588      46.770218    
    163000   0.99781793     18.624981      46.556959    
    164000   0.96600112     17.495269      46.49902     
    165000   1.075381       19.035455      46.268751    
    166000   0.98954977     19.330626      46.291112    
    167000   0.98339864     19.193383      45.657971    
    168000   1.0097228      19.268115      45.552036    
    169000   0.98595732     19.253374      45.513645    
    170000   0.94558352     19.166985      45.419984    
    171000   1.0422327      19.031292      45.055212    
    172000   1.0451302      19.748831      44.687469    
    173000   1.0114571      18.432241      44.47779     
    174000   0.97992826     18.050606      44.321569    
    175000   0.99037287     19.074678      44.240143    
    176000   0.97598844     18.637494      43.765953    
    177000   1.0293714      18.710111      43.422366    
    178000   0.95446783     18.135501      43.362073    
    179000   1.0144116      18.492578      43.271934    
    180000   0.96639938     18.317109      43.151559    
    181000   0.93498942     18.199338      42.981059    
    182000   1.0113734      18.921027      42.802304    
    183000   1.0822545      18.729861      42.432053    
    184000   0.99127983     19.014296      42.299224    
    185000   1.0148856      19.155085      41.724269    
    186000   0.95152293     19.293095      41.41683     
    187000   0.97617307     18.136266      41.000271    
    188000   1.0140934      18.851567      40.845654    
    189000   0.97506275     18.736604      40.346467    
    190000   1.0180652      18.955704      39.629626    
    191000   1.00126        18.67826       39.60192     
    192000   0.91019602     19.195018      39.6709      
    193000   0.96944646     18.808964      39.774774    
    194000   0.97361838     18.050793      39.659891    
    195000   1.0234153      18.289148      39.736717    
    196000   0.99389421     18.218804      39.697417    
    197000   1.0857351      18.614258      39.867974    
    198000   0.9922848      18.097887      39.899732    
    199000   1.0210772      19.784579      39.75911     
    200000   1.0161236      18.333112      39.488899    
    201000   1.0810883      19.391448      39.252688    
    202000   0.93911078     18.277077      39.328972    
    203000   1.0853751      19.05951       39.148678    
    204000   1.0166872      17.833732      38.787244    
    205000   0.98776019     18.19879       38.558381    
    206000   0.99601973     18.729767      38.493849    
    207000   1.0037354      17.929798      38.312273    
    208000   0.98782237     19.011359      38.024454    
    209000   0.95497658     18.817085      37.841681    
    210000   0.99413253     19.155394      37.661874    
    211000   0.99809738     17.778377      37.701227    
    212000   0.98063653     19.142363      37.7551      
    213000   1.0231878      18.603087      37.333026    
    214000   0.98585065     18.829092      37.125954    
    215000   1.0050469      19.222604      36.889484    
    216000   1.0639344      19.059461      36.395094    
    217000   1.067193       18.781632      36.322398    
    218000   0.9463539      18.773942      36.148259    
    219000   0.95063759     18.785288      35.883799    
    220000   1.0204344      19.16233       35.689818    
    221000   1.021046       19.289807      35.531269    
    222000   0.98620736     18.030264      35.28802     
    223000   1.0657809      18.980973      35.061286    
    224000   1.0270314      18.212049      34.667299    
    225000   1.0439145      18.700272      34.301449    
    226000   1.0301815      18.866964      34.425392    
    227000   1.0221086      18.357151      34.152287    
    228000   1.0684488      19.002335      33.869977    
    229000   0.99255308     17.898768      33.625012    
    230000   0.94632736     18.171654      33.408113    
    231000   0.94933685     17.870651      33.296336    
    232000   1.0416927      18.765173      33.037018    
    233000   1.0231332      18.444899      32.833033    
    234000   0.98401419     18.264478      32.902674    
    235000   1.0062113      18.405936      32.483898    
    236000   1.0468373      18.701092      32.176744    
    237000   1.0191538      18.331407      31.995       
    238000   0.98499629     19.008523      31.725234    
    239000   1.0437828      17.982184      31.556271    
    240000   1.0355994      17.697518      31.225233    
    241000   0.99954716     18.117157      31.179207    
    242000   0.97389067     18.155178      30.802028    
    243000   0.99814281     18.69432       30.338635    
    244000   0.97044237     18.259869      30.535569    
    245000   1.023227       18.846756      30.424888    
    246000   1.0282928      18.705093      30.473773    
    247000   0.98508007     17.668346      30.060971    
    248000   1.054084       18.056916      29.596635    
    249000   0.98089216     17.895457      29.105225    
    250000   0.92410693     18.213042      28.744585    
    251000   0.97165878     18.123471      28.73982     
    252000   0.95616894     19.181696      28.684555    
    253000   1.0509908      17.375422      28.429137    
    254000   1.0438714      18.447936      28.055965    
    255000   0.97441138     18.490088      28.078973    
    256000   1.036713       17.282492      28.007695    
    257000   0.98576396     17.970313      27.982786    
    258000   1.0325565      18.627062      27.914197    
    259000   1.0037213      18.311179      27.703233    
    260000   1.0142865      18.221617      27.329664    
    261000   1.0462244      17.956136      26.82594     
    262000   1.0351563      18.334146      26.445533    
    263000   0.99130303     17.900024      25.868009    
    264000   0.95885721     18.049086      25.331607    
    265000   1.02815        18.657373      25.159871    
    266000   0.97966315     18.074397      24.714771    
    267000   0.9808567      17.916026      24.255227    
    268000   0.99038853     18.428047      23.841134    
    269000   0.89952882     17.863688      24.021407    
    270000   0.95204009     17.477339      23.693603    
    271000   1.0109713      17.973829      23.547501    
    272000   0.99979109     18.750373      23.608587    
    273000   0.98193884     17.246923      23.509831    
    274000   1.0395278      18.501534      23.268775    
    275000   0.95788735     17.72718       23.016211    
    276000   0.98467743     17.818753      22.974456    
    277000   1.013245       18.525594      22.56629     
    278000   0.98689649     17.122389      22.205273    
    279000   0.97218616     17.94082       22.127072    
    280000   0.98292903     18.304329      22.004531    
    281000   0.99753652     17.612673      21.863418    
    282000   1.0154103      17.794091      21.696691    
    283000   1.0447602      18.275036      21.533226    
    284000   1.0675211      17.763353      21.277611    
    285000   1.0027243      19.287387      21.023759    
    286000   1.0123579      18.006058      20.521374    
    287000   0.99110454     17.866968      20.483566    
    288000   0.93724329     19.048986      20.38075     
    289000   0.94191697     17.916929      20.187839    
    290000   1.0510517      17.455926      20.280207    
    291000   1.0791567      18.686608      20.052572    
    292000   0.93993738     17.96844       19.819771    
    293000   0.88268053     17.755926      19.12163     
    294000   1.0482293      17.925342      18.761815    
    295000   0.98484615     17.495164      18.774814    
    296000   0.97009871     17.956406      18.614435    
    297000   1.0172662      18.394967      18.351997    
    298000   1.0293893      18.563742      18.294812    
    299000   1.0028952      17.260494      17.97844     
    300000   0.96493382     17.924999      17.630952    
    301000   0.96030912     18.803633      17.419296    
    302000   0.99466744     17.544721      17.376377    
    303000   1.0462345      18.349607      17.276512    
    304000   0.9881663      17.752473      17.177969    
    305000   1.0048098      17.571106      17.062053    
    306000   0.95372639     18.017915      16.950867    
    307000   1.0144296      17.968197      16.632456    
    308000   1.0128884      17.971066      16.331463    
    309000   1.0603567      18.150385      15.861669    
    310000   1.0559074      18.681509      15.393917    
    311000   1.0220773      18.278862      15.2636      
    312000   1.066215       17.677205      15.254039    
    313000   1.0579321      17.985583      15.018332    
    314000   0.98676815     18.321777      14.832966    
    315000   0.95064993     17.433612      14.816512    
    316000   1.1142589      17.743084      14.930125    
    317000   0.97824532     17.662892      14.662592    
    318000   1.059512       18.764167      14.360865    
    319000   1.0340573      17.937676      14.283491    
    320000   0.92739853     18.132101      13.894733    
    321000   1.0194885      18.514322      13.466295    
    322000   0.99690922     17.111461      13.078758    
    323000   0.97838068     16.791699      12.774255    
    324000   1.0079039      17.741849      12.679491    
    325000   0.9760951      17.81505       13.008369    
    326000   0.9879249      17.194456      12.753773    
    327000   1.0068392      18.140946      12.597926    
    328000   0.99742862     18.000103      12.408858    
    329000   0.99803063     17.134404      12.294626    
    330000   1.0165298      17.650446      12.086976    
    331000   1.0111945      16.2739        11.694797    
    332000   0.99543893     17.424188      11.308223    
    333000   0.97651446     17.233267      11.183851    
    334000   0.94747517     17.344233      10.871965    
    335000   1.0090242      18.647942      10.702144    
    336000   1.0290505      17.621081      10.518612    
    337000   0.97193313     16.641085      10.227764    
    338000   1.0439958      17.715425      10.034526    
    339000   0.95296791     17.715902      9.7441752    
    340000   0.99830669     17.11654       9.6311461    
    341000   1.0325483      17.993679      9.2166353    
    342000   0.95007956     17.677671      8.8524986    
    343000   0.99795626     17.826663      8.6638337    
    344000   1.0387083      17.758498      8.4166943    
    345000   0.99317557     17.461591      8.0375216    
    346000   0.92347878     16.751222      7.8156052    
    347000   1.0193948      17.754898      7.9845751    
    348000   1.0283591      17.262922      7.8739166    
    349000   0.99558079     17.43487       7.6281612    
    350000   1.0035964      17.591532      7.7048496    
    351000   1.0215393      17.84886       7.2588914    
    352000   1.0323149      17.160849      7.0595785    
Fix halt condition for fix-id 3 met on step 353000 with value 6.951352681587544 (src/fix_halt.cpp:237)
    353000   1.0366708      17.343291      6.9513527    
Loop time of 265.458 on 2 procs for 253000 steps with 499 atoms

Performance: 823451.721 tau/day, 953.069 timesteps/s
111.9% CPU use with 1 MPI tasks x 2 OpenMP threads

MPI task timing breakdown:
Section |  min time  |  avg time  |  max time  |%varavg| %total
---------------------------------------------------------------
Pair    | 19.276     | 19.276     | 19.276     |   0.0 |  7.26
Bond    | 2.8104     | 2.8104     | 2.8104     |   0.0 |  1.06
Neigh   | 236.23     | 236.23     | 236.23     |   0.0 | 88.99
Comm    | 0.056712   | 0.056712   | 0.056712   |   0.0 |  0.02
Output  | 0.58987    | 0.58987    | 0.58987    |   0.0 |  0.22
Modify  | 6.0521     | 6.0521     | 6.0521     |   0.0 |  2.28
Other   |            | 0.4408     |            |       |  0.17

Nlocal:            499 ave         499 max         499 min
Histogram: 1 0 0 0 0 0 0 0 0 0
Nghost:              0 ave           0 max           0 min
Histogram: 1 0 0 0 0 0 0 0 0 0
Neighs:          62323 ave       62323 max       62323 min
Histogram: 1 0 0 0 0 0 0 0 0 0

Total # of neighbors = 62323
Ave neighs/atom = 124.89579
Ave special neighs/atom = 1.995992
Neighbor list builds = 2279
Dangerous builds = 0

# This simulation is done
# Move onto the next one
clear
  using 2 OpenMP thread(s) per MPI task
package omp 0
using multi-threaded neighbor list subroutines
next f
jump SELF

###
# Reference paper:
# K. Kremer and G. S. Grest
# Dynamics of entangled linear polymer melts: A molecular-dynamics simulation
# J Chem Phys 92, 5057 (1990)

##################################
# MIHIR: for branched polymers
# LJ minimum first to expand and explore, then collapse
###

###
# Looping through the various N1B3 polymers to simulate,
# define variables to switch through
#variable f index bb66nuc1bl33bn3d30tot100 bb133nuc1bl66bn3d30tot200 bb200nuc1bl100bn3d30tot300 bb266nuc1bl133bn3d30tot400 bb333nuc1bl166bn3d30tot500 bb400nuc1bl200bn3d30tot600 bb466nuc1bl233bn3d30tot700 bb533nuc1bl266bn3d30tot800 bb600nuc1bl300bn3d30tot900 bb666nuc1bl333bn3d30tot1000 bb733nuc1bl366bn3d30tot1100 bb800nuc1bl400bn3d30tot1200
# variable f index bb66nuc1bl33bn3d30tot100V3 bb133nuc1bl66bn3d30tot200V3 bb200nuc1bl100bn3d30tot300V3 bb266nuc1bl133bn3d30tot400V3 bb333nuc1bl166bn3d30tot500V3 bb400nuc1bl200bn3d30tot600V3 bb466nuc1bl233bn3d30tot700V3 bb533nuc1bl266bn3d30tot800V3 bb600nuc1bl300bn3d30tot900V3 bb666nuc1bl333bn3d30tot1000V3 bb733nuc1bl366bn3d30tot1100V3 bb800nuc1bl400bn3d30tot1200V3
variable f index bb66nuc1bl33bn3d30tot100V2 bb133nuc1bl66bn3d30tot200V2 bb200nuc1bl100bn3d30tot300V2 bb266nuc1bl133bn3d30tot400V2 bb333nuc1bl166bn3d30tot500V2 bb400nuc1bl200bn3d30tot600V2 bb466nuc1bl233bn3d30tot700V2 bb533nuc1bl266bn3d30tot800V2 bb600nuc1bl300bn3d30tot900V2 bb666nuc1bl333bn3d30tot1000V2 bb733nuc1bl366bn3d30tot1100V2 bb800nuc1bl400bn3d30tot1200V2
#variable f index bb733nuc1bl366bn3d30tot1100V2 bb800nuc1bl400bn3d30tot1200V2
###


###
# Box and units  (use LJ units and periodic boundaries)
###

units lj
log N1B3/trial2/logs2/$f.log
log N1B3/trial2/logs2/bb400nuc1bl200bn3d30tot600V2.log
