#atom_style bond #no stiffness
atom_style angle #with stiffness

boundary        p p p
###
# Pair interactions require lists of neighbours to be calculated
###

#neighbor 0.3 bin
neighbor 4 bin

neigh_modify every 1 delay 1 check yes
atom_modify sort 0 0
### Generate RESTART file, SPECIAL format, not a .txt file ###
### Useful if simulation crashes ###

restart 1000000 N1B3/trial2/restarts2/$f.restart
restart 1000000 N1B3/trial2/restarts2/bb466nuc1bl233bn3d30tot700V2.restart
#############################



### READ "start" data file ###

read_data N1B3/trial2/dats2/$f.dat
read_data N1B3/trial2/dats2/bb466nuc1bl233bn3d30tot700V2.dat
Reading data file ...
  orthogonal box = (-1000 -1000 -1000) to (1000 1000 1000)
  1 by 1 by 1 MPI processor grid
  reading atoms ...
  700 atoms
  scanning bonds ...
  2 = max bonds/atom
  scanning angles ...
  3 = max angles/atom
  reading bonds ...
  699 bonds
  reading angles ...
  699 angles
Finding 1-2 1-3 1-4 neighbors ...
  special bond factors lj:    0        0        0       
  special bond factors coul:  0        0        0       
     3 = max # of 1-2 neighbors
     3 = max # of 1-3 neighbors
     6 = max # of 1-4 neighbors
     9 = max # of special neighbors
  special bonds CPU = 0.002 seconds
  read_data CPU = 0.130 seconds

######################

### READ "REstart" data file ###

######################



###
# Define groups (atom type 1 is group 'all')
###
group all type 1
700 atoms in group all


###
# Dump configs - "simple dumpings"
###

###
# Dump configs + box coords
###

dump   1   all   custom   1000  N1B3/trial2/trjs2/$f.lammpstrj  id  x y z  ix iy iz
dump   1   all   custom   1000  N1B3/trial2/trjs2/bb466nuc1bl233bn3d30tot700V2.lammpstrj  id  x y z  ix iy iz
dump_modify   1   format line "%d %.5f %.5f %.5f %d %d %d"

########################################################################


###################################################################
# Stiffness term
#
# E = K * (1+cos(theta)), K>0
#
angle_style   cosine
#change this coefficient to change stiffness (e.g. 1,5,10)
angle_coeff   1 1.0
###################################################################

###################################################################
# Pair interaction between non-bonded atoms
#
#  Lennard-Jones 12-6 potential with cutoff:
#  potential E=4epsilon[ (sigma/r)^12 - (sigma/r)^6]  for r<r_cut
#
#  1.12246 = 2^(1/6) is the minimum of the potential


pair_style      lj/cut 1.12246152962189
#pair_style      lj/cut 3

#
#  pair_modify shift yes adds a constant to the potential such

#  that E(r_cut)=0. Forces remains unchanged.
#

pair_modify     shift yes

#
#  pair_coeff for lj/cut, specify 4:
#    * atom type interacting with
#    * atom type
#    * epsilon (energy units)
#    * sigma (distance units)
#

pair_coeff      1 1 1.0 1.0
###################################################################

###################################################################
# Pair interaction between non-bonded atoms
#
#  soft potential, for PUSHING apart overlapping atoms
#  potential E=A*(1 + cos(pi*r/r_c))
#
#  1.12246 = 2^(1/6) is the cut-off r_c

#pair_style     soft 1.12246152962189

#
#  pair_coeff for soft, specify 3:
#    * atom type interacting with
#    * atom type
#    * A
#
#

#pair_coeff      1 1 100.0
###################################################################

###################################################################
# Pair interaction between bonded atoms
#
# Fene potential + Lennard Jones 12-6:

#
#  E= - 0.5 K R0^2 ln[ 1- (r/R0)^2]
#     + 4epsilon[ (sigma/r)^12 - (sigma/r)^6] + epsilon
#

bond_style   fene


#
# For style fene, specify:
#   * bond type
#   * K (energy/distance^2)
#   * R0 (distance)
#   * epsilon (energy)  (LJ component)
#   * sigma (distance)  (LJ component)
#


special_bonds fene #<=== I M P O R T A N T (new command)
Finding 1-2 1-3 1-4 neighbors ...
  special bond factors lj:    0        1        1       
  special bond factors coul:  0        1        1       
     3 = max # of 1-2 neighbors
     9 = max # of special neighbors
  special bonds CPU = 0.001 seconds

bond_coeff   1   30   2   1.0   1.0


###################################################

###################################################################
# Pair interaction between bonded atoms
#
# Harmonic potential:
#
#  E= K * (R-R0)^2
#

#bond_style   harmonic

#
# For style harmonic, specify:
#   * bond type
#   * K (energy/distance^2)
#   * R0 (distance)
#

#bond_coeff   1   60.0   1.0
#bond_coeff   2   harmonic 0.1   1.0

###################################################
compute 1 all gyration
variable rog equal c_1
#compute 2 all coord/atom cutoff 1.1

#dump 2 all custom 10000 contact_number.dump id c_2


###
# Set up fixes
###
thermo_style   custom   step  temp enthalpy c_1
fix 1 all nve   ###NVE ensemble

fix 2 all   langevin   1.0 1.0 1.0  778655   ###Langevin integrator Tstart Tstop 1/friction rndseed


##### Sample thermodynamic info  (temperature, energy, pressure, etc.) #####
thermo 1000









############################################################################

###
# set timestep of integrator

timestep 0.01

###
# run integration for a number of steps
###
#run 0
#variable r equal c_1
#if "$r < 63.1" then "quit 1"

# lj potential minimum, cause molecule to explore
run 100000
Generated 0 of 0 mixed pair_coeff terms from geometric mixing rule
Last active /omp style is angle_style cosine/omp
Neighbor list info ...
  update: every = 1 steps, delay = 1 steps, check = yes
  max neighbors/atom: 2000, page size: 100000
  master list distance cutoff = 5.1224615
  ghost atom cutoff = 5.1224615
  binsize = 2.5612308, bins = 781 781 781
  1 neighbor lists, perpetual/occasional/extra = 1 0 0
  (1) pair lj/cut/omp, perpetual
      attributes: half, newton on, omp
      pair build: half/bin/newton/omp
      stencil: half/bin/3d
      bin: standard
WARNING: Communication cutoff 5.12246152962189 is shorter than a bond length based estimate of 5.455. This may lead to errors. (src/comm.cpp:723)
Per MPI rank memory allocation (min/avg/max) = 1860 | 1860 | 1860 Mbytes
   Step          Temp         Enthalpy         c_1      
         0   0              13.174744      124.40073    
      1000   1.031964       17.369162      123.66353    
      2000   0.96764554     16.971271      122.9516     
      3000   1.056977       18.124007      122.1728     
      4000   1.0229875      18.563844      121.41989    
      5000   1.0226106      17.935953      120.70591    
      6000   0.96805219     17.795218      120.12884    
      7000   0.9533386      17.806547      119.82715    
      8000   0.98153749     17.89081       119.23149    
      9000   1.0041001      18.234716      118.80667    
     10000   0.97600425     18.757372      118.36474    
     11000   1.0389544      18.496006      117.94118    
     12000   0.93472705     18.412189      117.79639    
     13000   0.98674497     18.701267      117.2157     
     14000   0.96793892     18.945263      116.5918     
     15000   0.96470928     18.797443      116.25953    
     16000   1.0170183      19.28177       115.99223    
     17000   1.0165255      18.693108      115.56472    
     18000   1.0196285      19.334121      115.30462    
     19000   0.97764651     19.193502      114.95139    
     20000   1.0231565      19.225926      114.62265    
     21000   1.0621422      19.000903      114.18814    
     22000   0.98475688     19.18978       113.83315    
     23000   1.0097871      19.08786       113.21203    
     24000   1.0003591      19.664695      112.93354    
     25000   0.99972854     19.543598      112.63223    
     26000   0.99475747     19.54507       112.19813    
     27000   1.0029634      19.754703      111.88394    
     28000   1.0526754      19.398283      111.32509    
     29000   1.0303538      20.225848      110.80496    
     30000   0.95143792     18.55388       110.4751     
     31000   1.0041723      18.995208      110.00484    
     32000   0.99710806     18.869573      109.62229    
     33000   0.92487218     19.06141       109.29431    
     34000   0.99833856     19.937528      108.96335    
     35000   1.0473677      20.04401       108.50095    
     36000   0.96887373     18.920818      108.28462    
     37000   1.0177505      19.430636      107.95021    
     38000   1.0097547      19.210222      107.75415    
     39000   1.0245115      19.797888      107.48826    
     40000   1.0288973      19.708254      107.24896    
     41000   0.97020381     19.520245      106.87545    
     42000   1.0212736      19.4352        106.43158    
     43000   0.98885127     19.261433      106.14524    
     44000   0.97559179     18.868184      105.95918    
     45000   0.97237876     19.660494      105.85809    
     46000   1.0591661      19.857493      105.69994    
     47000   1.0855152      19.749705      105.60973    
     48000   1.0060917      19.598199      105.23664    
     49000   0.95009066     19.834042      105.16849    
     50000   1.0268927      20.142212      105.1414     
     51000   0.99416469     19.576122      105.08057    
     52000   1.025306       19.834284      104.9583     
     53000   1.0527897      19.984842      104.8296     
     54000   0.98753268     20.055671      104.5541     
     55000   0.96199122     19.338423      104.24355    
     56000   1.0070365      19.341527      103.78409    
     57000   1.0292084      19.761182      103.56416    
     58000   1.0051751      19.156484      103.54969    
     59000   0.97360868     20.241759      103.32234    
     60000   1.0424316      20.049647      103.11206    
     61000   1.0254974      20.125003      102.96661    
     62000   1.0261183      19.707299      102.89018    
     63000   0.98364735     20.339938      102.71939    
     64000   1.0311141      20.32592       102.64493    
     65000   0.99736598     19.826285      102.50854    
     66000   0.98747096     19.872896      102.18866    
     67000   0.97130726     19.962613      102.23396    
     68000   0.97488082     19.69301       101.95863    
     69000   1.0000794      19.29201       102.19672    
     70000   1.0451862      20.090313      101.90595    
     71000   0.98310912     20.140192      101.85258    
     72000   1.0091903      19.384708      101.82407    
     73000   1.0071145      19.613184      101.58304    
     74000   1.0181494      19.795615      101.30352    
     75000   1.0412687      19.900974      101.0601     
     76000   1.0057613      19.836918      100.83243    
     77000   1.0146019      20.152475      100.82619    
     78000   1.0413194      19.713714      100.88427    
     79000   1.0113261      19.520945      100.87467    
     80000   0.99883144     19.693861      100.73636    
     81000   1.0110539      20.22814       100.41249    
     82000   1.0162129      19.751127      100.09445    
     83000   0.96239038     20.229979      99.913317    
     84000   0.9831648      19.96289       99.648115    
     85000   1.0210062      20.660132      99.382799    
     86000   0.98241901     20.158847      99.318626    
     87000   0.94421439     19.61041       99.022177    
     88000   0.93589704     19.827234      98.845905    
     89000   0.97569201     20.24844       98.764098    
     90000   0.97676259     20.40768       98.753369    
     91000   0.96526987     19.848396      98.728636    
     92000   0.97102636     20.293321      98.64611     
     93000   0.98494121     19.523213      98.415802    
     94000   1.0533672      19.990892      98.427059    
     95000   1.0126894      20.2233        98.12319     
     96000   0.9531428      20.046629      98.12935     
     97000   0.94968807     19.408005      97.818782    
     98000   1.0044654      19.935166      97.686282    
     99000   1.0060319      20.06995       97.317631    
    100000   0.99132722     20.094785      97.109345    
Loop time of 285.039 on 2 procs for 100000 steps with 700 atoms

Performance: 303116.079 tau/day, 350.829 timesteps/s
102.4% CPU use with 1 MPI tasks x 2 OpenMP threads

MPI task timing breakdown:
Section |  min time  |  avg time  |  max time  |%varavg| %total
---------------------------------------------------------------
Pair    | 0.67748    | 0.67748    | 0.67748    |   0.0 |  0.24
Bond    | 1.4477     | 1.4477     | 1.4477     |   0.0 |  0.51
Neigh   | 279.23     | 279.23     | 279.23     |   0.0 | 97.96
Comm    | 0.026565   | 0.026565   | 0.026565   |   0.0 |  0.01
Output  | 0.26679    | 0.26679    | 0.26679    |   0.0 |  0.09
Modify  | 3.1763     | 3.1763     | 3.1763     |   0.0 |  1.11
Other   |            | 0.2154     |            |       |  0.08

Nlocal:            700 ave         700 max         700 min
Histogram: 1 0 0 0 0 0 0 0 0 0
Nghost:              0 ave           0 max           0 min
Histogram: 1 0 0 0 0 0 0 0 0 0
Neighs:           3899 ave        3899 max        3899 min
Histogram: 1 0 0 0 0 0 0 0 0 0

Total # of neighbors = 3899
Ave neighs/atom = 5.57
Ave special neighs/atom = 1.9971429
Neighbor list builds = 1060
Dangerous builds = 0

# Replace lj potential, now collapse
pair_style      lj/cut 3

# Cutoff simul when gyration under 7
# Variable created with equal requires v_ + 'name'
fix 3 all halt 1000 v_rog < 7

run 5000000
Generated 0 of 0 mixed pair_coeff terms from geometric mixing rule
Last active /omp style is angle_style cosine/omp
Per MPI rank memory allocation (min/avg/max) = 1860 | 1860 | 1860 Mbytes
   Step          Temp         Enthalpy         c_1      
    100000   0.99132722     19.545419      97.109345    
    101000   1.0103982      19.066544      96.997171    
    102000   1.005422       19.696937      96.605426    
    103000   0.96620215     19.569742      96.542397    
    104000   1.0568566      19.835029      96.433412    
    105000   1.0313951      20.197636      96.09518     
    106000   0.98695422     19.607358      95.859784    
    107000   1.0338948      19.557516      95.558845    
    108000   1.0050343      19.183939      95.290069    
    109000   1.0195008      19.225366      94.850716    
    110000   0.97149399     19.633853      94.595055    
    111000   1.0031368      19.645913      94.421006    
    112000   1.0468315      19.446244      94.216282    
    113000   1.0280698      19.542084      93.828888    
    114000   1.0008972      20.205687      93.848664    
    115000   0.99369953     19.212581      93.43221     
    116000   1.0241914      19.834546      92.958182    
    117000   0.99598149     20.038422      92.733362    
    118000   1.0374465      19.560346      92.338106    
    119000   1.0017806      19.139209      92.517686    
    120000   0.97740738     18.985828      92.463304    
    121000   0.96741686     19.066218      92.4968      
    122000   0.99553857     19.637579      92.110507    
    123000   1.0252365      19.408656      91.506301    
    124000   0.98522395     19.5116        91.195446    
    125000   1.0207714      20.204721      90.764769    
    126000   0.96175146     19.036625      90.695723    
    127000   1.0327806      18.918318      90.409462    
    128000   0.99154179     19.207423      90.33056     
    129000   0.99085502     19.255971      90.408869    
    130000   0.98871458     19.204134      90.489589    
    131000   1.0247337      19.059875      90.117321    
    132000   1.0294437      19.321154      90.117394    
    133000   0.99856971     19.749885      89.837103    
    134000   1.0338059      18.813617      89.490034    
    135000   1.0188234      19.494605      88.999516    
    136000   0.97552449     19.35312       88.899111    
    137000   1.0435577      19.117214      88.593598    
    138000   0.98219752     19.506317      88.705351    
    139000   0.99913527     18.95058       88.591045    
    140000   0.96071708     18.42542       88.198487    
    141000   0.97033102     19.140276      87.937293    
    142000   0.94454796     19.817553      87.904331    
    143000   0.98267881     19.194336      87.724283    
    144000   0.96808261     19.456017      87.524674    
    145000   0.98817359     19.026695      87.198472    
    146000   0.94167562     19.606337      86.889989    
    147000   1.0060753      19.279646      86.909743    
    148000   0.99843838     19.026203      86.674507    
    149000   1.0054642      19.868092      86.705865    
    150000   0.96016871     18.723574      86.379155    
    151000   1.0179918      18.946411      86.370246    
    152000   0.97437104     19.1038        86.385457    
    153000   1.0637686      19.258684      86.328405    
    154000   1.0107876      19.46549       85.905716    
    155000   0.95819621     18.694472      85.64429     
    156000   1.0149792      19.062476      85.500545    
    157000   0.98466368     19.199055      85.21267     
    158000   1.0281529      19.825521      85.273907    
    159000   1.0109936      19.233104      84.855547    
    160000   0.97543836     18.851212      84.769578    
    161000   1.0202019      18.46381       84.475937    
    162000   0.99586074     19.430587      84.398705    
    163000   0.98672791     18.698165      84.031835    
    164000   0.96993537     19.002137      83.988327    
    165000   0.92775848     18.907669      83.869025    
    166000   1.0264432      19.268502      83.686407    
    167000   0.98712773     19.566558      83.425291    
    168000   1.0220209      19.502336      83.469431    
    169000   0.9764666      18.258445      83.442596    
    170000   0.93115702     19.200904      83.257877    
    171000   1.0144721      19.238544      83.24754     
    172000   1.0009177      18.969777      83.042746    
    173000   0.99684449     19.389962      82.903012    
    174000   1.0428977      18.864851      82.647903    
    175000   1.0257826      19.171736      82.413637    
    176000   0.99569656     19.414575      82.212765    
    177000   0.97926688     18.74412       82.178446    
    178000   1.0106167      19.237391      81.784713    
    179000   1.0015552      19.012215      81.724242    
    180000   1.0050194      18.653114      81.548544    
    181000   1.021455       19.351351      81.496523    
    182000   0.98613307     19.015549      81.432296    
    183000   0.98839851     18.391095      81.086073    
    184000   0.96000554     18.815048      81.210846    
    185000   0.98497859     18.687011      81.231423    
    186000   0.98514648     18.355179      80.961507    
    187000   1.0303214      18.746711      80.636367    
    188000   0.99118366     19.319691      80.401807    
    189000   1.0052063      19.312458      80.399987    
    190000   0.97333927     18.66028       80.478573    
    191000   0.992208       19.289718      80.361007    
    192000   1.0457745      19.015929      79.919506    
    193000   0.98561985     18.907322      79.518499    
    194000   1.0115138      19.035703      79.324567    
    195000   0.97458087     18.849656      79.378306    
    196000   0.95183684     18.740798      79.124581    
    197000   0.93593421     18.575368      78.752858    
    198000   1.0084747      19.502746      78.354452    
    199000   1.0174925      18.753419      78.152769    
    200000   0.96220818     18.78665       78.410503    
    201000   0.98624806     19.268254      78.340092    
    202000   1.0030209      18.839454      78.209636    
    203000   1.0041252      18.661829      77.820271    
    204000   1.049449       19.116472      77.463255    
    205000   0.96812405     18.669216      77.114488    
    206000   1.0136693      18.994043      76.978146    
    207000   1.0407939      19.367042      76.683277    
    208000   1.0251032      19.004059      76.581245    
    209000   1.0254303      19.605694      76.382087    
    210000   0.97840007     18.714792      76.345871    
    211000   0.96659117     19.335008      76.12952     
    212000   1.0139752      19.001881      76.030485    
    213000   1.0090366      19.168828      76.190041    
    214000   1.0710161      19.313299      76.244942    
    215000   0.98828132     18.827545      76.216988    
    216000   0.98319241     18.864049      75.982757    
    217000   1.0002522      18.970481      75.88105     
    218000   1.0570794      18.991088      75.868841    
    219000   0.95386222     18.907613      75.548566    
    220000   1.0385784      19.163424      75.349707    
    221000   0.98327089     18.685131      75.371096    
    222000   0.93424751     18.971738      75.083254    
    223000   0.9720322      19.21715       75.062493    
    224000   1.0456058      19.516783      75.237816    
    225000   1.0169803      18.312205      75.227446    
    226000   1.0207593      18.790552      74.935967    
    227000   1.0403566      18.506489      74.678585    
    228000   0.97798732     18.694997      74.458816    
    229000   0.96401475     18.735177      74.207342    
    230000   0.96422148     19.017948      74.016999    
    231000   0.98076426     18.477222      74.041874    
    232000   1.021061       19.432001      74.120748    
    233000   0.9991511      18.628713      74.024828    
    234000   0.99213139     18.982931      73.7309      
    235000   0.98251096     18.140607      73.42922     
    236000   1.0025437      18.299117      73.20552     
    237000   1.0094775      18.982573      72.881021    
    238000   0.96246715     19.067477      72.789073    
    239000   0.98885695     18.911121      72.60226     
    240000   0.97505437     18.591994      72.389292    
    241000   0.9941183      18.442985      72.587052    
    242000   0.96835422     18.794379      72.245111    
    243000   0.94312328     18.425745      72.037648    
    244000   0.96050593     18.424679      72.0548      
    245000   1.0493404      18.514801      71.693213    
    246000   1.0658344      18.781658      71.40663     
    247000   1.0084003      19.300303      71.377992    
    248000   1.0113134      18.508385      71.250949    
    249000   1.0171853      18.388389      71.002769    
    250000   1.0289328      18.852402      70.985623    
    251000   0.98550953     18.80642       70.880995    
    252000   1.0239642      18.878558      71.005805    
    253000   0.95340415     19.427642      70.830538    
    254000   0.9669059      18.762055      70.752665    
    255000   1.0462532      18.371041      70.421983    
    256000   1.0132496      18.037517      70.359274    
    257000   0.99061294     18.511608      70.277821    
    258000   1.0205831      19.24834       69.977374    
    259000   1.0345522      18.681929      69.965563    
    260000   1.0081001      18.940856      69.844447    
    261000   1.0180528      18.335909      69.836392    
    262000   1.0402525      18.900406      69.804164    
    263000   0.99057364     18.838158      69.836676    
    264000   1.0257896      18.054838      69.454146    
    265000   1.0133825      18.679235      69.366265    
    266000   0.98030801     18.545389      69.267618    
    267000   1.0152681      19.069783      69.292141    
    268000   1.0335158      19.113126      69.20655     
    269000   0.98160626     18.618884      69.091196    
    270000   1.0065862      18.178612      68.694742    
    271000   0.97030119     18.503841      68.249723    
    272000   1.0121966      18.92747       68.050146    
    273000   0.99511434     18.837002      67.961222    
    274000   0.96799778     18.657248      67.641273    
    275000   1.0159443      19.229259      67.496526    
    276000   1.0118759      18.771284      67.037062    
    277000   1.0840456      18.118927      66.84872     
    278000   1.0263964      18.827296      66.936674    
    279000   1.013474       18.592971      66.817437    
    280000   0.92410389     18.548743      66.379307    
    281000   1.0492342      18.158026      66.449516    
    282000   0.99508697     18.333902      66.400093    
    283000   0.97900777     18.966258      66.138957    
    284000   1.0079357      18.686205      66.060552    
    285000   0.98975694     18.698116      66.261849    
    286000   1.016282       18.34304       66.269446    
    287000   1.0161573      18.954594      66.417113    
    288000   0.97787824     18.257382      66.393144    
    289000   1.0475827      18.70426       66.247119    
    290000   0.97908176     18.619754      66.129213    
    291000   1.0271109      18.735931      66.172148    
    292000   1.0378694      18.18077       65.938378    
    293000   0.96066981     18.09635       65.850209    
    294000   1.0550289      18.445798      65.696086    
    295000   1.0444742      18.769232      65.573685    
    296000   1.0496811      18.817906      65.630029    
    297000   0.99786329     18.279672      65.560015    
    298000   1.0406969      18.343394      65.705822    
    299000   0.93687903     18.510723      65.531053    
    300000   1.0332467      18.637046      65.486765    
    301000   0.99319795     18.663881      65.435649    
    302000   1.0087833      18.413652      65.480508    
    303000   0.98962796     18.71686       65.489455    
    304000   1.005716       18.687973      65.286808    
    305000   0.99149693     18.858889      64.922041    
    306000   1.0584789      18.645726      64.696729    
    307000   1.0013027      18.515331      64.621319    
    308000   1.0372937      18.818091      64.342522    
    309000   0.98163046     18.610228      64.412783    
    310000   0.98144099     18.638052      64.759288    
    311000   1.0036495      18.091906      64.623935    
    312000   1.0155055      19.088008      64.092966    
    313000   1.0750256      18.510243      63.985842    
    314000   1.0664529      18.380397      63.890206    
    315000   1.0758326      18.294764      63.884613    
    316000   0.99455191     18.908646      63.626032    
    317000   1.0463804      18.809208      63.599926    
    318000   1.0046871      19.004541      63.32162     
    319000   1.0078104      18.536081      63.223628    
    320000   1.031078       17.780038      63.138354    
    321000   0.9994358      18.658825      62.975879    
    322000   0.99571971     18.67169       62.770704    
    323000   1.0728039      17.900342      62.585067    
    324000   1.0013808      18.227561      62.1873      
    325000   0.97861925     18.67277       61.769228    
    326000   1.0311172      18.637727      61.509575    
    327000   1.0193246      18.963635      61.325445    
    328000   0.97193542     18.631687      61.184635    
    329000   0.95716774     18.195367      61.055835    
    330000   1.048484       18.159255      60.899685    
    331000   0.99255163     18.422372      60.871478    
    332000   1.0401528      18.289573      60.466457    
    333000   1.0256219      19.076495      60.545624    
    334000   1.0084287      18.405769      60.229722    
    335000   0.9776582      18.290917      60.250916    
    336000   1.0230573      18.669941      60.125142    
    337000   0.92637606     17.828136      59.910724    
    338000   0.92999433     17.643609      59.661067    
    339000   0.95410051     18.243973      59.267534    
    340000   1.0129366      18.718277      59.046031    
    341000   1.0004526      18.463772      58.827227    
    342000   0.98600825     18.417403      58.60834     
    343000   0.99283675     18.596642      58.629925    
    344000   1.0202812      18.582079      58.615346    
    345000   0.9912505      18.219114      58.65057     
    346000   1.0300729      18.77782       58.336049    
    347000   0.95238347     18.262452      58.280405    
    348000   0.97338662     18.503776      58.385742    
    349000   0.98722567     18.659509      58.459688    
    350000   0.99829036     19.012102      58.11554     
    351000   0.97804497     18.91191       58.056384    
    352000   1.006124       17.81241       58.056092    
    353000   1.0222569      18.727589      57.72745     
    354000   0.98562637     18.507429      57.306984    
    355000   1.0549431      18.597219      57.066249    
    356000   1.0205297      18.513052      57.007073    
    357000   1.0186617      19.392725      56.813836    
    358000   0.99365847     18.784988      56.744423    
    359000   1.004871       18.480163      56.532597    
    360000   1.0034233      18.71179       56.498766    
    361000   0.95656257     18.438415      56.417745    
    362000   1.0304331      19.147117      56.21434     
    363000   1.0086521      17.971542      56.041202    
    364000   0.98647204     18.369532      55.934175    
    365000   1.0318795      18.600104      55.653916    
    366000   0.94032258     18.708972      55.365878    
    367000   0.9815119      18.579653      55.399221    
    368000   1.013075       18.713852      55.079223    
    369000   1.0320387      18.829585      54.908423    
    370000   1.0216215      18.349469      54.642319    
    371000   0.99030235     18.799566      54.462939    
    372000   0.9922269      18.820914      54.199583    
    373000   1.019138       18.883217      54.160113    
    374000   0.97520839     18.306141      54.275651    
    375000   0.99439759     18.272923      54.266833    
    376000   0.97475693     18.395678      54.148915    
    377000   0.97430275     18.166099      53.974307    
    378000   0.99389653     18.356916      53.892796    
    379000   1.0125886      18.257267      53.980485    
    380000   1.0528978      18.291073      53.79791     
    381000   0.97172619     18.630064      53.834761    
    382000   1.0344029      18.274644      53.499729    
    383000   1.0163905      19.347106      53.371789    
    384000   1.0334347      18.328712      53.275594    
    385000   0.97315216     18.608862      53.486996    
    386000   1.0026834      18.680509      53.451804    
    387000   0.94378352     18.625986      53.495811    
    388000   1.0493632      18.700881      53.240373    
    389000   1.0034213      18.10559       53.201548    
    390000   1.0132052      19.0393        53.16646     
    391000   0.96954324     18.66861       52.932131    
    392000   1.0441808      18.022651      52.853743    
    393000   0.98957526     17.717161      52.887316    
    394000   0.97989953     18.36471       52.923469    
    395000   1.0637591      18.1869        53.129384    
    396000   0.97440095     17.973307      53.095559    
    397000   1.040055       18.695374      53.283365    
    398000   1.0392034      18.300078      53.038238    
    399000   1.0130542      18.070433      53.027544    
    400000   1.0145059      18.578075      52.78569     
    401000   1.0299864      18.352422      52.63838     
    402000   1.012473       19.115549      52.318937    
    403000   1.023858       17.707818      52.215895    
    404000   0.99524349     18.101334      51.679104    
    405000   0.99444587     18.706033      51.582693    
    406000   0.97149331     18.503293      51.500047    
    407000   0.94688474     17.87549       51.291107    
    408000   1.0494924      18.312764      51.515604    
    409000   0.97565994     18.550017      51.442503    
    410000   1.0566757      18.741899      51.410306    
    411000   1.0274435      18.666392      51.106886    
    412000   1.081185       18.284855      50.903408    
    413000   1.0434212      18.671475      50.633663    
    414000   1.0231766      17.880266      50.417989    
    415000   1.0214851      18.211565      50.438589    
    416000   1.006337       18.428656      50.314151    
    417000   1.0147321      18.003654      50.471429    
    418000   0.98873194     17.479384      50.40087     
    419000   1.0007939      18.000894      50.132657    
    420000   1.0891279      18.093207      49.763189    
    421000   1.0201214      18.394263      49.698021    
    422000   0.99853489     18.448105      49.470473    
    423000   1.0223228      17.892349      49.51857     
    424000   0.99773802     18.255579      49.456486    
    425000   1.0517893      17.779317      49.214453    
    426000   0.95681891     18.274458      49.198678    
    427000   1.0516031      18.814613      49.015103    
    428000   0.9071858      18.012072      48.776947    
    429000   0.96891151     18.141746      48.519682    
    430000   1.0347944      17.714654      48.562983    
    431000   0.97968352     17.904043      48.476012    
    432000   0.98444791     18.246239      48.320008    
    433000   0.99107449     18.178385      48.278309    
    434000   1.0397346      17.708123      48.207188    
    435000   0.99729824     18.436784      48.108282    
    436000   1.0077529      18.298313      48.000598    
    437000   0.98543434     17.725098      47.681059    
    438000   1.0007465      17.581012      47.721976    
    439000   1.0040231      18.942512      47.722756    
    440000   0.99315072     18.971757      47.764112    
    441000   1.0436785      19.221252      47.667045    
    442000   0.96964354     18.929658      47.510914    
    443000   1.0199542      18.31217       47.156009    
    444000   1.0342475      17.629776      47.0464      
    445000   1.0088554      18.501873      47.242527    
    446000   0.9855382      17.890549      46.98072     
    447000   1.0023678      18.709854      46.933012    
    448000   0.9635469      18.185604      46.674517    
    449000   0.96647162     18.368444      46.485627    
    450000   1.0075166      18.575696      46.25593     
    451000   0.98230273     18.200227      45.858212    
    452000   0.99085695     18.140976      45.953962    
    453000   0.99716075     18.26674       45.928294    
    454000   0.9734487      17.955963      45.909439    
    455000   0.95648293     18.430017      45.908732    
    456000   0.99294334     17.86707       45.78748     
    457000   0.99046203     17.476869      45.700017    
    458000   0.95929555     18.082198      45.699876    
    459000   1.0083062      18.238172      45.558707    
    460000   1.0706133      17.488584      45.548007    
    461000   1.0139906      18.039962      45.511599    
    462000   0.95659557     17.84495       45.37999     
    463000   0.9771979      18.64686       44.993557    
    464000   0.96622431     18.149663      44.964651    
    465000   1.0440394      18.746588      44.733734    
    466000   0.97011434     18.440667      44.605437    
    467000   0.9947683      18.133777      44.546901    
    468000   1.0856511      18.186373      44.648188    
    469000   1.0021704      17.631759      44.662461    
    470000   1.0357236      17.915024      44.35653     
    471000   1.0574194      17.876591      44.053139    
    472000   1.0361583      18.313373      43.931782    
    473000   0.93999506     18.098592      44.04449     
    474000   0.948013       17.749652      43.924917    
    475000   1.015303       18.380349      43.662632    
    476000   1.0241998      18.890566      43.460798    
    477000   0.94691906     18.133631      43.644692    
    478000   1.0451943      17.691193      43.662576    
    479000   1.050996       18.372241      43.663687    
    480000   1.0520577      17.489716      43.818467    
    481000   1.0126127      18.187533      43.725294    
    482000   0.99982948     17.423214      43.834557    
    483000   0.94298048     17.472468      43.747479    
    484000   0.97268297     17.985929      43.843126    
    485000   1.0428034      17.911217      43.721491    
    486000   1.0048819      17.245165      43.152004    
    487000   0.94793839     18.863239      43.038582    
    488000   1.0087702      18.074468      42.850601    
    489000   1.0102953      18.337709      42.444146    
    490000   1.0114952      18.462048      41.928174    
    491000   0.93989834     17.275537      41.640608    
    492000   1.0270243      17.987578      41.318987    
    493000   1.0073311      18.083812      41.003335    
    494000   0.98222784     17.780512      40.660703    
    495000   1.0667986      18.374562      40.415812    
    496000   1.0016694      17.457013      40.1859      
    497000   0.98835257     17.726531      39.983156    
    498000   1.0300093      17.561716      39.895437    
    499000   1.0113464      18.320122      39.678648    
    500000   1.0318509      18.069924      39.796854    
    501000   0.99291184     18.204495      39.593864    
    502000   1.0563376      18.005342      39.11373     
    503000   1.0141226      18.033786      38.973129    
    504000   0.96391709     18.418275      38.991685    
    505000   1.0092452      17.843277      38.851405    
    506000   0.92617399     17.47024       38.38978     
    507000   0.96176398     18.336496      38.176394    
    508000   0.96793743     18.213142      37.870143    
    509000   1.0300142      18.383184      37.807923    
    510000   1.0222502      18.254274      37.529184    
    511000   0.98823625     18.175384      37.181524    
    512000   0.96794617     18.120086      37.132537    
    513000   1.0116767      17.890378      37.038211    
    514000   1.0541105      17.564732      36.966699    
    515000   1.0735452      17.930144      36.941739    
    516000   1.0226225      18.985008      36.81162     
    517000   0.99730841     18.135843      36.760774    
    518000   1.0573536      18.432627      36.717377    
    519000   1.0399862      17.621777      36.651922    
    520000   0.96852721     18.128969      36.520842    
    521000   0.97703531     17.607361      36.365357    
    522000   0.96542347     17.929651      36.351501    
    523000   1.0232553      18.097766      36.176967    
    524000   1.0081728      17.146043      36.455246    
    525000   0.99976205     17.960327      36.349977    
    526000   0.9407642      18.040288      36.047043    
    527000   0.98695869     18.873375      36.082952    
    528000   1.0157728      17.626625      35.947798    
    529000   0.9818315      17.750212      35.735145    
    530000   0.9775057      18.207238      35.577231    
    531000   0.95622528     17.1035        35.518212    
    532000   1.0250838      18.181386      35.406292    
    533000   1.0073191      17.855724      35.163576    
    534000   0.98605199     16.886148      35.099208    
    535000   1.0164549      18.067655      34.979569    
    536000   1.0409448      18.17866       34.967122    
    537000   0.99319119     17.48857       34.800116    
    538000   0.96764384     17.283809      34.398678    
    539000   1.0211623      17.871276      33.950497    
    540000   0.9893424      17.889906      33.537202    
    541000   1.0101698      17.311828      33.379029    
    542000   1.0016564      18.503187      32.965113    
    543000   1.0180379      18.264123      32.797626    
    544000   0.99487623     17.856628      32.482678    
    545000   0.98859222     17.55191       32.185137    
    546000   1.0185232      18.203832      31.751222    
    547000   0.99582514     17.795899      31.593807    
    548000   1.0093861      18.177783      31.433261    
    549000   0.99346334     17.826071      31.393026    
    550000   1.008992       18.571516      30.887245    
    551000   0.97196299     17.624129      30.917769    
    552000   1.0217526      18.236077      30.929662    
    553000   1.0022963      18.217356      30.840875    
    554000   1.000785       18.417695      30.520559    
    555000   0.99908993     17.910658      30.173007    
    556000   1.0193561      17.917458      30.179699    
    557000   1.0078056      18.537758      29.710754    
    558000   1.0139622      18.014123      29.663554    
    559000   1.0128935      17.468379      29.584453    
    560000   0.99047174     18.301453      29.251561    
    561000   1.0176298      17.879507      29.089166    
    562000   0.96276457     18.491083      29.21361     
    563000   1.0053357      17.329128      28.887809    
    564000   0.98050215     18.412657      28.499863    
    565000   1.0210397      18.026511      28.465818    
    566000   0.94325899     18.403528      28.277465    
    567000   0.98752242     17.105637      27.905651    
    568000   1.0130921      17.444548      27.792735    
    569000   1.0040876      17.858207      27.684808    
    570000   1.007605       17.818835      27.619261    
    571000   1.0052525      17.75302       27.737668    
    572000   1.0294824      17.840248      27.390204    
    573000   0.99248918     18.389665      27.100045    
    574000   1.0344011      18.251843      26.771059    
    575000   1.0675609      18.063085      26.95165     
    576000   1.0418805      17.248613      26.553056    
    577000   1.0726042      17.772731      26.618167    
    578000   0.97004927     17.371573      26.201514    
    579000   1.0262652      17.571602      26.12855     
    580000   1.0087068      18.073404      26.093924    
    581000   1.0094032      17.3911        25.914914    
    582000   0.96888994     17.266156      25.689644    
    583000   0.97098498     17.814891      25.15933     
    584000   0.98502123     17.739088      24.780015    
    585000   1.0338856      17.886301      24.836706    
    586000   0.99277937     17.93531       24.465985    
    587000   1.0327423      17.891808      24.144141    
    588000   1.0191825      18.257678      24.114966    
    589000   1.0498197      18.400181      24.181817    
    590000   1.0225447      18.352624      24.006991    
    591000   0.981392       18.0915        23.983705    
    592000   1.0283743      18.273016      23.945588    
    593000   1.0053152      17.223313      23.738043    
    594000   0.99929415     17.764198      23.592326    
    595000   1.0609599      17.896948      23.426487    
    596000   0.97402083     17.486757      23.260391    
    597000   1.0181703      17.998591      23.167594    
    598000   1.0138192      17.450558      23.194889    
    599000   0.95894794     16.804306      23.390802    
    600000   1.0349553      18.192389      23.140102    
    601000   0.95320518     17.04049       23.093141    
    602000   1.0060049      18.430335      22.694142    
    603000   0.99407599     17.579094      22.604154    
    604000   1.0251807      17.28888       22.436143    
    605000   1.0083947      17.677342      22.396695    
    606000   1.0043908      18.225411      22.376904    
    607000   0.9984742      18.02253       22.323611    
    608000   0.98182872     17.187825      22.199545    
    609000   0.98843392     18.182775      22.270021    
    610000   0.9935022      17.750538      22.04141     
    611000   1.034985       18.121903      21.880317    
    612000   1.0036216      18.42455       22.072085    
    613000   0.96531121     18.28292       21.979019    
    614000   1.0372066      18.821354      21.589551    
    615000   1.0260122      18.44037       21.625971    
    616000   1.0151095      18.095778      21.290169    
    617000   0.97793637     17.969021      21.176147    
    618000   1.0193501      17.922005      21.111665    
    619000   1.0032139      17.578965      21.255112    
    620000   1.0005519      17.972529      21.41362     
    621000   0.98917584     17.025428      21.099356    
    622000   0.97221868     17.700497      21.113824    
    623000   0.99008334     17.317483      21.182041    
    624000   1.0136043      18.009826      21.108669    
    625000   0.98127835     18.274118      20.800542    
    626000   1.0027227      17.265174      20.83636     
    627000   0.96298783     17.549734      20.383747    
    628000   0.9683768      17.721807      20.264069    
    629000   0.97186667     17.711551      20.157055    
    630000   1.0070543      17.664933      20.022181    
    631000   1.0604065      18.521556      19.893795    
    632000   1.0008365      17.783129      20.032196    
    633000   1.0008038      17.349199      19.773749    
    634000   1.0085332      17.386671      19.545428    
    635000   0.96864983     17.979241      19.576299    
    636000   0.97676096     17.056266      19.656441    
    637000   1.0211954      17.592442      19.21194     
    638000   0.99170155     17.986702      18.891162    
    639000   0.97777937     17.069065      18.743399    
    640000   1.0194267      17.265297      18.843868    
    641000   1.0152753      17.625393      18.527163    
    642000   1.0223805      18.12716       18.409413    
    643000   1.0120139      17.46913       18.19592     
    644000   0.96423608     16.534297      18.126718    
    645000   1.0199109      17.658027      17.901224    
    646000   0.96042895     17.156616      17.825511    
    647000   0.97091174     17.637071      18.036359    
    648000   1.0199257      17.44079       17.986451    
    649000   0.99125811     17.560257      17.672906    
    650000   1.0692082      17.43304       17.413126    
    651000   0.9756148      17.349145      17.100127    
    652000   1.0425908      17.775923      17.074832    
    653000   0.95441257     17.091279      16.863122    
    654000   0.96461776     17.676141      16.47078     
    655000   0.99199544     17.458215      16.442585    
    656000   1.0308649      18.195738      16.083492    
    657000   0.99729946     17.892818      16.22046     
    658000   0.97165399     17.967937      16.18835     
    659000   1.0117265      17.346747      16.010676    
    660000   0.99137846     17.907237      15.808442    
    661000   0.97616952     17.730984      15.525973    
    662000   1.0082785      17.549158      15.370196    
    663000   1.0588859      17.664056      15.439556    
    664000   1.0132661      17.271707      15.358912    
    665000   0.97436459     18.72187       15.228136    
    666000   1.0072024      17.105323      15.020526    
    667000   0.97988088     17.990864      14.902922    
    668000   0.96984139     17.503233      14.829108    
    669000   0.95123836     17.854959      14.722018    
    670000   1.0628316      17.811706      14.342595    
    671000   0.99201037     17.164761      14.152206    
    672000   0.92583585     17.086027      14.063197    
    673000   0.97350532     17.852842      14.025725    
    674000   1.0262871      17.677965      14.018336    
    675000   0.98447328     18.54769       13.962551    
    676000   0.97056295     17.481086      13.742818    
    677000   1.0006194      17.257939      13.36555     
    678000   0.99319603     17.367445      13.530658    
    679000   0.96781589     17.464594      13.452841    
    680000   1.0612754      18.321043      13.245203    
    681000   0.9984923      17.782468      13.024027    
    682000   1.0033582      17.526888      12.951202    
    683000   0.94659435     17.225578      12.829863    
    684000   1.0191278      18.00252       12.82097     
    685000   1.0548884      18.55891       12.794895    
    686000   1.0030452      17.513685      12.678906    
    687000   0.98932322     17.439379      12.4761      
    688000   1.0424049      17.826936      12.214195    
    689000   1.0314283      17.425319      12.139399    
    690000   1.0017169      17.489341      11.856182    
    691000   1.0477248      17.807758      11.803269    
    692000   0.959905       17.489679      11.401912    
    693000   1.0514239      17.939346      11.256425    
    694000   1.0210057      17.640736      10.97662     
    695000   0.95188785     17.24331       10.687394    
    696000   1.0290149      18.023601      10.488374    
    697000   0.99540668     17.790896      10.249292    
    698000   1.0268669      18.241388      10.06205     
    699000   0.97902639     18.194675      9.9891408    
    700000   1.0201003      17.442679      9.9935379    
    701000   1.0282227      17.408933      9.6413845    
    702000   1.0788954      17.450007      9.5025574    
    703000   1.0427494      17.418616      9.299132     
    704000   0.98421984     18.123017      8.9253506    
    705000   0.97142772     17.359989      8.7456383    
    706000   1.0254358      17.547554      8.7816738    
    707000   1.0487831      17.460667      8.5414042    
    708000   0.98618876     17.466008      8.3079005    
    709000   1.0830882      17.739624      8.2742617    
    710000   1.0320448      18.06857       7.8315714    
    711000   0.99082205     17.343347      7.6375724    
    712000   1.0072765      17.063606      7.3857077    
    713000   1.0727901      17.535641      7.2399269    
    714000   0.99932182     17.729119      7.0914258    
Fix halt condition for fix-id 3 met on step 715000 with value 6.8941998088826155 (src/fix_halt.cpp:237)
    715000   0.96880547     17.3605        6.8941998    
Loop time of 723.081 on 2 procs for 615000 steps with 700 atoms

Performance: 734855.289 tau/day, 850.527 timesteps/s
116.0% CPU use with 1 MPI tasks x 2 OpenMP threads

MPI task timing breakdown:
Section |  min time  |  avg time  |  max time  |%varavg| %total
---------------------------------------------------------------
Pair    | 76.823     | 76.823     | 76.823     |   0.0 | 10.62
Bond    | 9.1025     | 9.1025     | 9.1025     |   0.0 |  1.26
Neigh   | 614.1      | 614.1      | 614.1      |   0.0 | 84.93
Comm    | 0.16035    | 0.16035    | 0.16035    |   0.0 |  0.02
Output  | 1.6471     | 1.6471     | 1.6471     |   0.0 |  0.23
Modify  | 19.819     | 19.819     | 19.819     |   0.0 |  2.74
Other   |            | 1.425      |            |       |  0.20

Nlocal:            700 ave         700 max         700 min
Histogram: 1 0 0 0 0 0 0 0 0 0
Nghost:              0 ave           0 max           0 min
Histogram: 1 0 0 0 0 0 0 0 0 0
Neighs:         104746 ave      104746 max      104746 min
Histogram: 1 0 0 0 0 0 0 0 0 0

Total # of neighbors = 104746
Ave neighs/atom = 149.63714
Ave special neighs/atom = 1.9971429
Neighbor list builds = 5852
Dangerous builds = 0

# This simulation is done
# Move onto the next one
clear
  using 2 OpenMP thread(s) per MPI task
package omp 0
using multi-threaded neighbor list subroutines
next f
jump SELF

###
# Reference paper:
# K. Kremer and G. S. Grest
# Dynamics of entangled linear polymer melts: A molecular-dynamics simulation
# J Chem Phys 92, 5057 (1990)

##################################
# MIHIR: for branched polymers
# LJ minimum first to expand and explore, then collapse
###

###
# Looping through the various N1B3 polymers to simulate,
# define variables to switch through
#variable f index bb66nuc1bl33bn3d30tot100 bb133nuc1bl66bn3d30tot200 bb200nuc1bl100bn3d30tot300 bb266nuc1bl133bn3d30tot400 bb333nuc1bl166bn3d30tot500 bb400nuc1bl200bn3d30tot600 bb466nuc1bl233bn3d30tot700 bb533nuc1bl266bn3d30tot800 bb600nuc1bl300bn3d30tot900 bb666nuc1bl333bn3d30tot1000 bb733nuc1bl366bn3d30tot1100 bb800nuc1bl400bn3d30tot1200
# variable f index bb66nuc1bl33bn3d30tot100V3 bb133nuc1bl66bn3d30tot200V3 bb200nuc1bl100bn3d30tot300V3 bb266nuc1bl133bn3d30tot400V3 bb333nuc1bl166bn3d30tot500V3 bb400nuc1bl200bn3d30tot600V3 bb466nuc1bl233bn3d30tot700V3 bb533nuc1bl266bn3d30tot800V3 bb600nuc1bl300bn3d30tot900V3 bb666nuc1bl333bn3d30tot1000V3 bb733nuc1bl366bn3d30tot1100V3 bb800nuc1bl400bn3d30tot1200V3
variable f index bb66nuc1bl33bn3d30tot100V2 bb133nuc1bl66bn3d30tot200V2 bb200nuc1bl100bn3d30tot300V2 bb266nuc1bl133bn3d30tot400V2 bb333nuc1bl166bn3d30tot500V2 bb400nuc1bl200bn3d30tot600V2 bb466nuc1bl233bn3d30tot700V2 bb533nuc1bl266bn3d30tot800V2 bb600nuc1bl300bn3d30tot900V2 bb666nuc1bl333bn3d30tot1000V2 bb733nuc1bl366bn3d30tot1100V2 bb800nuc1bl400bn3d30tot1200V2
#variable f index bb733nuc1bl366bn3d30tot1100V2 bb800nuc1bl400bn3d30tot1200V2
###


###
# Box and units  (use LJ units and periodic boundaries)
###

units lj
log N1B3/trial2/logs2/$f.log
log N1B3/trial2/logs2/bb533nuc1bl266bn3d30tot800V2.log
