#atom_style bond #no stiffness
atom_style angle #with stiffness

boundary        p p p
###
# Pair interactions require lists of neighbours to be calculated
###

#neighbor 0.3 bin
neighbor 4 bin

neigh_modify every 1 delay 1 check yes
atom_modify sort 0 0
### Generate RESTART file, SPECIAL format, not a .txt file ###
### Useful if simulation crashes ###

restart 1000000 N1B4/trial2/restarts3/$f.restart
restart 1000000 N1B4/trial2/restarts3/bb301nuc1bl150bn4d30tot600V2.restart
#############################



### READ "start" data file ###

read_data N1B4/trial2/dats2/$f.dat
read_data N1B4/trial2/dats2/bb301nuc1bl150bn4d30tot600V2.dat
Reading data file ...
  orthogonal box = (-1000 -1000 -1000) to (1000 1000 1000)
  1 by 1 by 1 MPI processor grid
  reading atoms ...
  601 atoms
  scanning bonds ...
  3 = max bonds/atom
  scanning angles ...
  6 = max angles/atom
  reading bonds ...
  600 bonds
  reading angles ...
  602 angles
Finding 1-2 1-3 1-4 neighbors ...
  special bond factors lj:    0        0        0       
  special bond factors coul:  0        0        0       
     4 = max # of 1-2 neighbors
     4 = max # of 1-3 neighbors
     8 = max # of 1-4 neighbors
    12 = max # of special neighbors
  special bonds CPU = 0.002 seconds
  read_data CPU = 0.125 seconds

######################

### READ "REstart" data file ###

######################



###
# Define groups (atom type 1 is group 'all')
###
group all type 1
601 atoms in group all


###
# Dump configs - "simple dumpings"
###

###
# Dump configs + box coords
###

dump   1   all   custom   1000  N1B4/trial2/trjs3/$f.lammpstrj  id  x y z  ix iy iz
dump   1   all   custom   1000  N1B4/trial2/trjs3/bb301nuc1bl150bn4d30tot600V2.lammpstrj  id  x y z  ix iy iz
dump_modify   1   format line "%d %.5f %.5f %.5f %d %d %d"

########################################################################


###################################################################
# Stiffness term
#
# E = K * (1+cos(theta)), K>0
#
angle_style   cosine
#change this coefficient to change stiffness (e.g. 1,5,10)
angle_coeff   1 1.0
###################################################################

###################################################################
# Pair interaction between non-bonded atoms
#
#  Lennard-Jones 12-6 potential with cutoff:
#  potential E=4epsilon[ (sigma/r)^12 - (sigma/r)^6]  for r<r_cut
#
#  1.12246 = 2^(1/6) is the minimum of the potential


pair_style      lj/cut 1.12246152962189
#pair_style      lj/cut 3

#
#  pair_modify shift yes adds a constant to the potential such

#  that E(r_cut)=0. Forces remains unchanged.
#

pair_modify     shift yes

#
#  pair_coeff for lj/cut, specify 4:
#    * atom type interacting with
#    * atom type
#    * epsilon (energy units)
#    * sigma (distance units)
#

pair_coeff      1 1 1.0 1.0
###################################################################

###################################################################
# Pair interaction between non-bonded atoms
#
#  soft potential, for PUSHING apart overlapping atoms
#  potential E=A*(1 + cos(pi*r/r_c))
#
#  1.12246 = 2^(1/6) is the cut-off r_c

#pair_style     soft 1.12246152962189

#
#  pair_coeff for soft, specify 3:
#    * atom type interacting with
#    * atom type
#    * A
#
#

#pair_coeff      1 1 100.0
###################################################################

###################################################################
# Pair interaction between bonded atoms
#
# Fene potential + Lennard Jones 12-6:

#
#  E= - 0.5 K R0^2 ln[ 1- (r/R0)^2]
#     + 4epsilon[ (sigma/r)^12 - (sigma/r)^6] + epsilon
#

bond_style   fene


#
# For style fene, specify:
#   * bond type
#   * K (energy/distance^2)
#   * R0 (distance)
#   * epsilon (energy)  (LJ component)
#   * sigma (distance)  (LJ component)
#


special_bonds fene #<=== I M P O R T A N T (new command)
Finding 1-2 1-3 1-4 neighbors ...
  special bond factors lj:    0        1        1       
  special bond factors coul:  0        1        1       
     4 = max # of 1-2 neighbors
    12 = max # of special neighbors
  special bonds CPU = 0.001 seconds

bond_coeff   1   30   2   1.0   1.0


###################################################

###################################################################
# Pair interaction between bonded atoms
#
# Harmonic potential:
#
#  E= K * (R-R0)^2
#

#bond_style   harmonic

#
# For style harmonic, specify:
#   * bond type
#   * K (energy/distance^2)
#   * R0 (distance)
#

#bond_coeff   1   60.0   1.0
#bond_coeff   2   harmonic 0.1   1.0

###################################################
compute 1 all gyration
variable rog equal c_1
#compute 2 all coord/atom cutoff 1.1

#dump 2 all custom 10000 contact_number.dump id c_2


###
# Set up fixes
###
thermo_style   custom   step  temp enthalpy c_1
fix 1 all nve   ###NVE ensemble

fix 2 all   langevin   1.0 1.0 1.0  778655   ###Langevin integrator Tstart Tstop 1/friction rndseed


##### Sample thermodynamic info  (temperature, energy, pressure, etc.) #####
thermo 1000









############################################################################

###
# set timestep of integrator

timestep 0.01

###
# run integration for a number of steps
###
#run 0
#variable r equal c_1
#if "$r < 63.1" then "quit 1"

# lj potential minimum, cause molecule to explore
run 100000
Generated 0 of 0 mixed pair_coeff terms from geometric mixing rule
Last active /omp style is angle_style cosine/omp
Neighbor list info ...
  update: every = 1 steps, delay = 1 steps, check = yes
  max neighbors/atom: 2000, page size: 100000
  master list distance cutoff = 5.1224615
  ghost atom cutoff = 5.1224615
  binsize = 2.5612308, bins = 781 781 781
  1 neighbor lists, perpetual/occasional/extra = 1 0 0
  (1) pair lj/cut/omp, perpetual
      attributes: half, newton on, omp
      pair build: half/bin/newton/omp
      stencil: half/bin/3d
      bin: standard
WARNING: Communication cutoff 5.12246152962189 is shorter than a bond length based estimate of 5.455. This may lead to errors. (src/comm.cpp:723)
Per MPI rank memory allocation (min/avg/max) = 1861 | 1861 | 1861 Mbytes
   Step          Temp         Enthalpy         c_1      
         0   0              13.241731      78.97946     
      1000   0.99887228     17.665125      78.051955    
      2000   1.0263944      18.566709      77.280916    
      3000   0.99883908     18.673257      76.455651    
      4000   0.9428299      18.502754      75.85249     
      5000   1.0032735      18.570311      75.133621    
      6000   0.98451471     18.989884      74.265346    
      7000   0.99004062     18.734054      73.770851    
      8000   1.0202281      18.884227      73.02627     
      9000   1.0246409      19.232242      72.208819    
     10000   1.0257278      19.412255      71.334087    
     11000   1.0344594      19.254481      70.812581    
     12000   1.0002695      20.338572      70.49277     
     13000   0.97666442     19.096461      70.051862    
     14000   1.0698812      19.300006      69.904446    
     15000   0.98576476     19.683537      69.257157    
     16000   0.98722913     19.517825      68.914638    
     17000   0.99930975     19.842817      68.52826     
     18000   1.0543856      19.695479      68.186105    
     19000   0.95867813     19.756491      67.915306    
     20000   1.064591       19.57547       67.607347    
     21000   0.96645896     20.163661      67.217133    
     22000   1.0399306      20.501404      66.759313    
     23000   1.0297904      19.899749      66.211401    
     24000   0.95257168     19.259745      66.057454    
     25000   0.94747529     19.978962      65.617837    
     26000   0.98203044     19.676135      65.395514    
     27000   1.0285425      19.945137      65.170923    
     28000   1.0575707      20.347327      64.981853    
     29000   0.99667352     19.344542      64.75266     
     30000   1.0293894      19.778597      64.651539    
     31000   0.97857644     19.71451       64.466873    
     32000   0.95748106     19.57145       64.423308    
     33000   0.93877532     19.604677      64.025814    
     34000   0.94745351     19.301999      63.783592    
     35000   0.99037703     19.453034      63.167239    
     36000   1.0063079      19.705466      62.955153    
     37000   1.0169056      20.528282      62.335043    
     38000   0.99748241     19.699562      62.257765    
     39000   1.0464383      19.992219      61.79073     
     40000   0.97680473     20.476274      61.512905    
     41000   0.97445652     19.837852      61.248314    
     42000   0.99893712     20.021402      61.277878    
     43000   0.98322527     19.461336      61.120436    
     44000   1.01333        19.835154      60.905021    
     45000   0.99747098     20.375972      60.60503     
     46000   0.96345254     19.915473      60.297455    
     47000   1.0054865      19.20361       60.230075    
     48000   1.0011652      20.088966      60.148766    
     49000   0.99353934     19.719455      59.994003    
     50000   0.98215807     20.236929      59.81626     
     51000   1.0050318      19.914794      59.596597    
     52000   1.0374672      20.428847      59.724915    
     53000   0.964075       19.916544      59.644487    
     54000   1.0257999      20.373375      59.47777     
     55000   1.0384728      20.155182      59.749423    
     56000   1.0230502      19.934617      59.626901    
     57000   0.99446941     20.114733      59.721458    
     58000   1.0257666      19.649744      59.596161    
     59000   0.98070449     20.684402      59.173231    
     60000   1.0544478      20.759688      59.005194    
     61000   1.0009092      20.167616      58.478938    
     62000   0.96569224     20.684235      58.329172    
     63000   1.0186712      20.351748      58.33141     
     64000   1.0067991      20.073932      58.004955    
     65000   0.98257663     20.380901      57.899673    
     66000   0.9965807      20.223121      57.76537     
     67000   1.0507408      21.026818      57.604944    
     68000   0.97013822     20.122946      57.643487    
     69000   1.0131813      19.760619      57.685561    
     70000   1.0605757      20.177297      57.235945    
     71000   1.0299193      20.706212      57.171086    
     72000   1.0394555      20.658254      56.851119    
     73000   0.97993174     20.075018      56.905762    
     74000   1.0205545      20.363203      56.491709    
     75000   1.0182282      20.225799      56.439636    
     76000   0.97832756     20.820926      56.340762    
     77000   0.97574951     19.879912      56.038104    
     78000   1.0013966      20.466927      55.849333    
     79000   1.0326319      20.57369       55.672922    
     80000   1.0195964      20.442726      55.666271    
     81000   0.96637614     19.854487      55.776651    
     82000   1.0462622      20.590764      55.924473    
     83000   1.0037871      20.245457      55.598738    
     84000   0.9889962      20.448695      55.080924    
     85000   0.95361074     20.708504      54.825216    
     86000   1.0278895      20.440899      54.752575    
     87000   0.94341413     20.049136      54.496124    
     88000   0.97149535     20.657001      54.018901    
     89000   1.0025467      20.518485      53.576885    
     90000   1.0159968      20.329147      53.232218    
     91000   1.027236       20.676674      53.352522    
     92000   1.0096467      20.414362      53.110816    
     93000   1.0157017      20.692062      52.513202    
     94000   1.0094698      19.856067      52.530329    
     95000   1.0293149      20.453401      52.544403    
     96000   0.9986731      20.503026      52.628321    
     97000   1.0223365      20.447207      52.340742    
     98000   1.0009098      19.800484      52.053313    
     99000   0.97229655     20.424326      51.826191    
    100000   1.0234635      19.574186      51.8151      
Loop time of 304.903 on 2 procs for 100000 steps with 601 atoms

Performance: 283368.563 tau/day, 327.973 timesteps/s
94.5% CPU use with 1 MPI tasks x 2 OpenMP threads

MPI task timing breakdown:
Section |  min time  |  avg time  |  max time  |%varavg| %total
---------------------------------------------------------------
Pair    | 0.7906     | 0.7906     | 0.7906     |   0.0 |  0.26
Bond    | 1.4626     | 1.4626     | 1.4626     |   0.0 |  0.48
Neigh   | 298.92     | 298.92     | 298.92     |   0.0 | 98.04
Comm    | 0.02663    | 0.02663    | 0.02663    |   0.0 |  0.01
Output  | 0.27035    | 0.27035    | 0.27035    |   0.0 |  0.09
Modify  | 3.2182     | 3.2182     | 3.2182     |   0.0 |  1.06
Other   |            | 0.2146     |            |       |  0.07

Nlocal:            601 ave         601 max         601 min
Histogram: 1 0 0 0 0 0 0 0 0 0
Nghost:              0 ave           0 max           0 min
Histogram: 1 0 0 0 0 0 0 0 0 0
Neighs:           4204 ave        4204 max        4204 min
Histogram: 1 0 0 0 0 0 0 0 0 0

Total # of neighbors = 4204
Ave neighs/atom = 6.9950083
Ave special neighs/atom = 1.9966722
Neighbor list builds = 1081
Dangerous builds = 0

# Replace lj potential, now collapse
pair_style      lj/cut 3

# Cutoff simul when gyration under 7
# Variable created with equal requires v_ + 'name'
fix 3 all halt 1000 v_rog < 7

run 5000000
Generated 0 of 0 mixed pair_coeff terms from geometric mixing rule
Last active /omp style is angle_style cosine/omp
Per MPI rank memory allocation (min/avg/max) = 1861 | 1861 | 1861 Mbytes
   Step          Temp         Enthalpy         c_1      
    100000   1.0234635      18.892688      51.8151      
    101000   0.99987543     19.554061      51.922094    
    102000   1.026116       19.731986      51.63886     
    103000   0.98975702     19.36344       51.305526    
    104000   0.98103558     19.787121      50.916484    
    105000   0.9458001      18.830949      50.971998    
    106000   1.0220454      19.655407      50.74468     
    107000   1.0262577      19.819107      50.762577    
    108000   1.0122675      19.170897      50.780005    
    109000   1.0626217      19.702638      50.501402    
    110000   1.0071309      19.746029      50.45081     
    111000   1.0008316      18.607576      50.291514    
    112000   0.99540968     18.909452      49.925279    
    113000   1.0373773      20.126057      49.747979    
    114000   0.96197493     18.828518      49.543628    
    115000   1.0239236      18.90508       49.414997    
    116000   0.97307877     19.663934      49.38843     
    117000   0.99054973     18.821095      48.960589    
    118000   0.92176979     18.751718      48.86769     
    119000   1.0421291      20.075654      48.457542    
    120000   1.0554596      19.025733      48.05681     
    121000   0.98423274     18.949835      47.798634    
    122000   1.023864       18.947403      47.241677    
    123000   0.9844575      18.989868      47.085593    
    124000   1.0494024      18.821459      46.684633    
    125000   0.98001222     18.66098       46.666822    
    126000   1.0152456      18.959196      46.457683    
    127000   0.98626702     18.887498      45.909755    
    128000   0.98397982     19.208055      45.708952    
    129000   0.98660963     19.239054      45.605239    
    130000   0.96250527     18.943453      45.236199    
    131000   1.0475677      18.488612      45.045333    
    132000   0.99767519     18.895441      44.63416     
    133000   0.95975069     19.459881      44.283543    
    134000   0.95801562     18.98305       44.318401    
    135000   0.99405319     19.073561      44.316063    
    136000   0.99498384     19.341501      44.068097    
    137000   1.010578       19.547432      43.837537    
    138000   1.0322202      18.618676      43.718963    
    139000   0.95974606     18.254128      43.582508    
    140000   1.0935997      19.56865       43.293143    
    141000   1.0587203      19.074636      42.897912    
    142000   0.90825407     18.601569      42.414736    
    143000   0.96912537     19.342007      42.101329    
    144000   0.99210938     19.028407      41.785453    
    145000   0.95211616     18.830508      41.65179     
    146000   1.0510391      19.506791      41.464584    
    147000   0.96068326     18.650493      41.153184    
    148000   1.0030247      18.680858      40.811938    
    149000   0.98564412     19.022132      40.371649    
    150000   1.0077562      18.68191       40.092921    
    151000   1.0057403      18.893877      39.806225    
    152000   1.0735276      18.997218      39.579311    
    153000   1.0146723      19.486685      39.383547    
    154000   1.0186273      18.780077      39.056321    
    155000   1.0076602      18.350335      38.742517    
    156000   0.9661019      18.518774      38.979692    
    157000   0.94741857     18.080029      38.722618    
    158000   1.02013        18.701125      38.354962    
    159000   1.0660497      18.655028      38.107209    
    160000   1.0440122      18.452471      37.853644    
    161000   1.0433524      18.530224      37.680419    
    162000   1.0162594      18.003178      37.476328    
    163000   1.0267019      18.999304      37.37122     
    164000   0.96145112     19.346434      37.088538    
    165000   1.022127       18.673458      36.789823    
    166000   1.0474141      19.032859      36.593215    
    167000   1.0692247      18.654744      36.15253     
    168000   1.0073217      18.633152      35.755367    
    169000   0.98615035     19.008259      35.778997    
    170000   0.96362181     19.082188      35.647536    
    171000   0.99504663     19.028249      35.447544    
    172000   1.0402802      18.835704      35.20218     
    173000   1.0160315      18.76384       35.109024    
    174000   0.98598046     18.454547      34.762291    
    175000   1.0033185      18.255864      34.578634    
    176000   0.93229269     18.545948      34.444022    
    177000   0.96966973     19.294787      34.314096    
    178000   0.98043438     17.977         33.713757    
    179000   0.97278767     18.11605       33.353279    
    180000   0.95910101     18.185722      33.061781    
    181000   1.0360441      19.048931      32.957224    
    182000   1.0051436      18.575991      32.625244    
    183000   0.98118202     19.11568       32.323118    
    184000   0.96610669     18.405914      32.273174    
    185000   1.0374523      18.233859      32.116269    
    186000   0.98387049     18.852024      31.900586    
    187000   0.99815026     18.389028      31.562136    
    188000   1.0301691      18.409859      31.231196    
    189000   0.99473332     18.65594       31.285254    
    190000   1.0323899      18.226168      31.092634    
    191000   1.0553742      18.50478       31.100635    
    192000   1.0193396      17.916067      30.777297    
    193000   1.0092583      18.694048      30.632402    
    194000   1.0263536      18.184544      30.266831    
    195000   1.024913       18.165861      29.897164    
    196000   1.0196985      18.401837      29.722798    
    197000   0.98425509     17.655766      29.480603    
    198000   0.96200693     19.105014      29.121844    
    199000   0.9701633      17.86858       28.613106    
    200000   1.0002767      18.507946      28.191619    
    201000   1.0146384      18.399487      27.686532    
    202000   0.92355686     17.610737      27.705676    
    203000   0.99424296     18.112233      27.716402    
    204000   0.96688751     18.312063      27.649519    
    205000   0.96674287     17.908723      27.272594    
    206000   1.0064691      18.678804      27.288198    
    207000   1.0685471      18.742732      27.079508    
    208000   0.9723016      17.893331      26.593447    
    209000   1.0332298      18.260367      26.187524    
    210000   0.96958163     19.02026       25.964884    
    211000   1.0252572      18.580834      25.945473    
    212000   0.95525249     17.543253      25.827767    
    213000   1.0183979      17.88075       25.534109    
    214000   0.98383175     18.297483      25.10386     
    215000   1.0858519      18.338257      24.820595    
    216000   0.98352304     18.397211      24.65398     
    217000   1.0557938      18.442935      24.237984    
    218000   1.0052741      18.447246      24.123079    
    219000   1.0515633      18.576805      23.91001     
    220000   1.004797       18.090169      23.986738    
    221000   0.98485407     18.202567      23.717176    
    222000   1.0067885      18.955605      23.466005    
    223000   1.0124315      18.675721      23.528391    
    224000   1.0036477      18.294798      23.286983    
    225000   1.0612201      17.974445      23.185112    
    226000   1.0166483      17.887025      22.924326    
    227000   1.0270002      19.179229      23.007461    
    228000   0.9933625      18.039896      22.807255    
    229000   0.982339       17.96742       22.54101     
    230000   0.98644733     18.327211      22.259148    
    231000   1.0005486      18.322642      21.68014     
    232000   1.0436086      18.407077      21.347845    
    233000   1.0039156      17.894061      21.019613    
    234000   0.97673166     18.013279      20.808171    
    235000   1.0271702      18.782385      20.555645    
    236000   0.9473406      17.823249      20.579653    
    237000   0.98561689     18.401805      20.725086    
    238000   1.0219894      18.286821      20.764043    
    239000   1.0013765      18.1535        20.719017    
    240000   0.98919544     18.231302      20.655203    
    241000   0.99948451     18.016393      20.335268    
    242000   1.0728305      18.741699      20.142243    
    243000   1.000015       18.022816      20.10823     
    244000   1.0397738      17.711268      19.817576    
    245000   0.9667502      17.455824      19.379701    
    246000   0.99592162     17.648638      19.243613    
    247000   0.99124379     18.504365      19.006985    
    248000   0.97601653     18.09313       18.577462    
    249000   0.89313605     17.738786      18.526689    
    250000   1.027687       18.587036      18.094916    
    251000   0.93920827     17.78126       18.013654    
    252000   0.96067912     17.970175      18.002672    
    253000   0.99488466     17.773843      17.847263    
    254000   1.0149332      17.426342      17.787917    
    255000   0.9724312      17.130574      17.708365    
    256000   0.98015289     18.213185      17.53034     
    257000   1.0530412      18.725679      17.361375    
    258000   0.93309385     17.521563      17.329879    
    259000   0.94841863     17.711833      17.164453    
    260000   1.0096291      17.732193      17.095583    
    261000   0.9702983      17.683272      16.749771    
    262000   1.029465       17.815067      16.747816    
    263000   0.96635283     17.500568      16.671767    
    264000   0.96898987     18.036824      16.752427    
    265000   1.0447581      18.093797      16.370648    
    266000   1.019162       18.096602      16.059017    
    267000   0.97005937     18.473186      16.137771    
    268000   0.95009677     17.794506      15.952718    
    269000   0.96883072     17.98682       15.568667    
    270000   0.97885425     17.647741      15.509185    
    271000   0.97158073     17.490197      15.245122    
    272000   0.97891055     18.333142      14.624871    
    273000   0.92975576     17.721823      14.603689    
    274000   1.0744568      17.187628      14.332868    
    275000   1.0071042      17.538188      13.618406    
    276000   1.0611168      18.101493      13.459149    
    277000   0.99127807     18.374741      13.489105    
    278000   0.98127166     17.593444      13.295195    
    279000   1.0475178      18.307122      12.959148    
    280000   0.99209976     18.12766       12.85618     
    281000   0.9566981      16.901043      12.709514    
    282000   0.94379305     17.389885      12.160135    
    283000   1.0323271      18.085593      11.75854     
    284000   0.98316002     17.464732      11.534934    
    285000   1.012154       17.512458      11.392594    
    286000   1.0444369      16.883411      11.313377    
    287000   1.0379854      18.859507      11.24092     
    288000   0.9451239      17.715634      11.04103     
    289000   1.0254432      17.647574      10.80866     
    290000   0.97085299     17.149321      10.521542    
    291000   0.95365279     17.545804      10.262977    
    292000   1.0412642      17.696127      10.00701     
    293000   1.0457617      17.523244      9.8683211    
    294000   1.0077983      17.872115      9.6698373    
    295000   0.98731562     17.923171      9.622245     
    296000   1.0419215      17.149329      9.472399     
    297000   0.99687333     17.59575       9.2057092    
    298000   1.0057709      18.633594      8.8660915    
    299000   0.95943877     17.82963       8.8257238    
    300000   1.0154996      17.42463       8.6119024    
    301000   0.96087829     17.355317      8.5302294    
    302000   0.96565373     18.564678      8.4689699    
    303000   0.97888764     17.371946      8.366299     
    304000   1.0050351      17.990765      8.2190843    
    305000   1.0145641      17.422827      8.2127046    
    306000   1.0029438      17.50941       8.1334339    
    307000   1.0072186      17.53033       7.976434     
    308000   0.99388171     16.982686      8.1330386    
    309000   1.0030261      17.813845      7.8556901    
    310000   1.011418       17.618209      7.5701099    
    311000   1.0312572      17.213866      7.5368664    
    312000   1.0138531      17.110894      7.4041711    
    313000   1.01584        18.562463      7.1091906    
Fix halt condition for fix-id 3 met on step 314000 with value 6.953946854809737 (src/fix_halt.cpp:237)
    314000   0.9996176      17.587826      6.9539469    
Loop time of 247.002 on 2 procs for 214000 steps with 601 atoms

Performance: 748560.632 tau/day, 866.390 timesteps/s
105.5% CPU use with 1 MPI tasks x 2 OpenMP threads

MPI task timing breakdown:
Section |  min time  |  avg time  |  max time  |%varavg| %total
---------------------------------------------------------------
Pair    | 21.879     | 21.879     | 21.879     |   0.0 |  8.86
Bond    | 3.0902     | 3.0902     | 3.0902     |   0.0 |  1.25
Neigh   | 214.24     | 214.24     | 214.24     |   0.0 | 86.74
Comm    | 0.058634   | 0.058634   | 0.058634   |   0.0 |  0.02
Output  | 0.515      | 0.515      | 0.515      |   0.0 |  0.21
Modify  | 6.7429     | 6.7429     | 6.7429     |   0.0 |  2.73
Other   |            | 0.4723     |            |       |  0.19

Nlocal:            601 ave         601 max         601 min
Histogram: 1 0 0 0 0 0 0 0 0 0
Nghost:              0 ave           0 max           0 min
Histogram: 1 0 0 0 0 0 0 0 0 0
Neighs:          70432 ave       70432 max       70432 min
Histogram: 1 0 0 0 0 0 0 0 0 0

Total # of neighbors = 70432
Ave neighs/atom = 117.19135
Ave special neighs/atom = 1.9966722
Neighbor list builds = 1969
Dangerous builds = 0

# This simulation is done
# Move onto the next one
clear
  using 2 OpenMP thread(s) per MPI task
package omp 0
using multi-threaded neighbor list subroutines
next f
jump SELF

###
# Reference paper:
# K. Kremer and G. S. Grest
# Dynamics of entangled linear polymer melts: A molecular-dynamics simulation
# J Chem Phys 92, 5057 (1990)

##################################
# MIHIR: for branched polymers
# LJ minimum first to expand and explore, then collapse
###

###
# Looping through the various N1B4 polymers to simulate,
# define variables to switch through
variable f index bb51nuc1bl25bn4d30tot100V2 bb101nuc1bl50bn4d30tot200V2 bb151nuc1bl75bn4d30tot300V2 bb201nuc1bl100bn4d30tot400V2 bb251nuc1bl125bn4d30tot500V2 bb301nuc1bl150bn4d30tot600V2 bb351nuc1bl175bn4d30tot700V2 bb401nuc1bl200bn4d30tot800V2 bb451nuc1bl225bn4d30tot900V2 bb501nuc1bl250bn4d30tot1000V2 bb551nuc1bl275bn4d30tot1100V2 bb601nuc1bl300bn4d30tot1200V2
# variable f index bb51nuc1bl25bn4d30tot100V3 bb101nuc1bl50bn4d30tot200V3 bb151nuc1bl75bn4d30tot300V3 bb201nuc1bl100bn4d30tot400V3 bb251nuc1bl125bn4d30tot500V3 bb301nuc1bl150bn4d30tot600V3 bb351nuc1bl175bn4d30tot700V3 bb401nuc1bl200bn4d30tot800V3 bb451nuc1bl225bn4d30tot900V3 bb501nuc1bl250bn4d30tot1000V3 bb551nuc1bl275bn4d30tot1100V3 bb601nuc1bl300bn4d30tot1200V3
# variable f index bb51nuc1bl25bn4d30tot100 bb101nuc1bl50bn4d30tot200 bb151nuc1bl75bn4d30tot300 bb201nuc1bl100bn4d30tot400 bb251nuc1bl125bn4d30tot500 bb301nuc1bl150bn4d30tot600 bb351nuc1bl175bn4d30tot700 bb401nuc1bl200bn4d30tot800 bb451nuc1bl225bn4d30tot900 bb501nuc1bl250bn4d30tot1000 bb551nuc1bl275bn4d30tot1100 bb601nuc1bl300bn4d30tot1200
###


###
# Box and units  (use LJ units and periodic boundaries)
###

units lj
log N1B4/trial2/logs3/$f.log
log N1B4/trial2/logs3/bb351nuc1bl175bn4d30tot700V2.log
