#atom_style bond #no stiffness
atom_style angle #with stiffness

boundary        p p p
###
# Pair interactions require lists of neighbours to be calculated
###

#neighbor 0.3 bin
neighbor 4 bin

neigh_modify every 1 delay 1 check yes
atom_modify sort 0 0
### Generate RESTART file, SPECIAL format, not a .txt file ###
### Useful if simulation crashes ###

restart 1000000 N1B4/trial2/restarts3/$f.restart
restart 1000000 N1B4/trial2/restarts3/bb351nuc1bl175bn4d30tot700V2.restart
#############################



### READ "start" data file ###

read_data N1B4/trial2/dats2/$f.dat
read_data N1B4/trial2/dats2/bb351nuc1bl175bn4d30tot700V2.dat
Reading data file ...
  orthogonal box = (-1000 -1000 -1000) to (1000 1000 1000)
  1 by 1 by 1 MPI processor grid
  reading atoms ...
  701 atoms
  scanning bonds ...
  3 = max bonds/atom
  scanning angles ...
  6 = max angles/atom
  reading bonds ...
  700 bonds
  reading angles ...
  702 angles
Finding 1-2 1-3 1-4 neighbors ...
  special bond factors lj:    0        0        0       
  special bond factors coul:  0        0        0       
     4 = max # of 1-2 neighbors
     4 = max # of 1-3 neighbors
     8 = max # of 1-4 neighbors
    12 = max # of special neighbors
  special bonds CPU = 0.002 seconds
  read_data CPU = 0.141 seconds

######################

### READ "REstart" data file ###

######################



###
# Define groups (atom type 1 is group 'all')
###
group all type 1
701 atoms in group all


###
# Dump configs - "simple dumpings"
###

###
# Dump configs + box coords
###

dump   1   all   custom   1000  N1B4/trial2/trjs3/$f.lammpstrj  id  x y z  ix iy iz
dump   1   all   custom   1000  N1B4/trial2/trjs3/bb351nuc1bl175bn4d30tot700V2.lammpstrj  id  x y z  ix iy iz
dump_modify   1   format line "%d %.5f %.5f %.5f %d %d %d"

########################################################################


###################################################################
# Stiffness term
#
# E = K * (1+cos(theta)), K>0
#
angle_style   cosine
#change this coefficient to change stiffness (e.g. 1,5,10)
angle_coeff   1 1.0
###################################################################

###################################################################
# Pair interaction between non-bonded atoms
#
#  Lennard-Jones 12-6 potential with cutoff:
#  potential E=4epsilon[ (sigma/r)^12 - (sigma/r)^6]  for r<r_cut
#
#  1.12246 = 2^(1/6) is the minimum of the potential


pair_style      lj/cut 1.12246152962189
#pair_style      lj/cut 3

#
#  pair_modify shift yes adds a constant to the potential such

#  that E(r_cut)=0. Forces remains unchanged.
#

pair_modify     shift yes

#
#  pair_coeff for lj/cut, specify 4:
#    * atom type interacting with
#    * atom type
#    * epsilon (energy units)
#    * sigma (distance units)
#

pair_coeff      1 1 1.0 1.0
###################################################################

###################################################################
# Pair interaction between non-bonded atoms
#
#  soft potential, for PUSHING apart overlapping atoms
#  potential E=A*(1 + cos(pi*r/r_c))
#
#  1.12246 = 2^(1/6) is the cut-off r_c

#pair_style     soft 1.12246152962189

#
#  pair_coeff for soft, specify 3:
#    * atom type interacting with
#    * atom type
#    * A
#
#

#pair_coeff      1 1 100.0
###################################################################

###################################################################
# Pair interaction between bonded atoms
#
# Fene potential + Lennard Jones 12-6:

#
#  E= - 0.5 K R0^2 ln[ 1- (r/R0)^2]
#     + 4epsilon[ (sigma/r)^12 - (sigma/r)^6] + epsilon
#

bond_style   fene


#
# For style fene, specify:
#   * bond type
#   * K (energy/distance^2)
#   * R0 (distance)
#   * epsilon (energy)  (LJ component)
#   * sigma (distance)  (LJ component)
#


special_bonds fene #<=== I M P O R T A N T (new command)
Finding 1-2 1-3 1-4 neighbors ...
  special bond factors lj:    0        1        1       
  special bond factors coul:  0        1        1       
     4 = max # of 1-2 neighbors
    12 = max # of special neighbors
  special bonds CPU = 0.001 seconds

bond_coeff   1   30   2   1.0   1.0


###################################################

###################################################################
# Pair interaction between bonded atoms
#
# Harmonic potential:
#
#  E= K * (R-R0)^2
#

#bond_style   harmonic

#
# For style harmonic, specify:
#   * bond type
#   * K (energy/distance^2)
#   * R0 (distance)
#

#bond_coeff   1   60.0   1.0
#bond_coeff   2   harmonic 0.1   1.0

###################################################
compute 1 all gyration
variable rog equal c_1
#compute 2 all coord/atom cutoff 1.1

#dump 2 all custom 10000 contact_number.dump id c_2


###
# Set up fixes
###
thermo_style   custom   step  temp enthalpy c_1
fix 1 all nve   ###NVE ensemble

fix 2 all   langevin   1.0 1.0 1.0  778655   ###Langevin integrator Tstart Tstop 1/friction rndseed


##### Sample thermodynamic info  (temperature, energy, pressure, etc.) #####
thermo 1000









############################################################################

###
# set timestep of integrator

timestep 0.01

###
# run integration for a number of steps
###
#run 0
#variable r equal c_1
#if "$r < 63.1" then "quit 1"

# lj potential minimum, cause molecule to explore
run 100000
Generated 0 of 0 mixed pair_coeff terms from geometric mixing rule
Last active /omp style is angle_style cosine/omp
Neighbor list info ...
  update: every = 1 steps, delay = 1 steps, check = yes
  max neighbors/atom: 2000, page size: 100000
  master list distance cutoff = 5.1224615
  ghost atom cutoff = 5.1224615
  binsize = 2.5612308, bins = 781 781 781
  1 neighbor lists, perpetual/occasional/extra = 1 0 0
  (1) pair lj/cut/omp, perpetual
      attributes: half, newton on, omp
      pair build: half/bin/newton/omp
      stencil: half/bin/3d
      bin: standard
WARNING: Communication cutoff 5.12246152962189 is shorter than a bond length based estimate of 5.455. This may lead to errors. (src/comm.cpp:723)
Per MPI rank memory allocation (min/avg/max) = 1862 | 1862 | 1862 Mbytes
   Step          Temp         Enthalpy         c_1      
         0   0              13.244477      92.093179    
      1000   1.0200262      17.985691      91.338105    
      2000   0.99964922     18.335625      90.76376     
      3000   1.0060678      18.296037      90.083668    
      4000   0.98179538     18.554444      89.522834    
      5000   1.0203671      18.554003      88.70847     
      6000   1.026459       19.018215      88.155459    
      7000   0.99065477     18.453781      87.442342    
      8000   1.0008388      18.941313      86.66735     
      9000   0.99981837     18.48215       86.350877    
     10000   1.0078105      18.854305      86.337893    
     11000   1.0309233      18.816618      85.763468    
     12000   1.0424283      19.575752      85.158807    
     13000   1.016252       19.420669      84.509891    
     14000   0.96337307     19.488358      84.158931    
     15000   1.0279627      20.03298       83.691505    
     16000   0.98963072     19.4993        83.150674    
     17000   1.0316003      20.256553      82.587876    
     18000   0.9863711      19.558084      82.109944    
     19000   0.99587687     19.515581      81.797712    
     20000   1.0177218      19.454051      81.482853    
     21000   0.94479813     19.175401      81.230374    
     22000   0.97721461     19.327802      81.160221    
     23000   1.0659177      19.93613       80.803919    
     24000   1.0621371      20.053148      80.396366    
     25000   0.96578441     19.553375      80.30195     
     26000   0.95406833     19.274405      79.925531    
     27000   0.98768082     19.775496      79.729825    
     28000   0.99977171     19.615881      79.580624    
     29000   0.97754624     19.482682      79.492634    
     30000   0.97391918     19.12595       79.188563    
     31000   0.97910465     20.286937      78.911353    
     32000   0.98405241     20.148698      78.697122    
     33000   1.0225509      20.238799      78.246566    
     34000   1.0047669      20.010667      78.249408    
     35000   1.026006       19.30677       77.977454    
     36000   1.0031398      19.485929      77.713445    
     37000   0.98532826     19.605337      77.425955    
     38000   1.0348324      19.530003      77.253139    
     39000   0.99925833     19.728561      77.010517    
     40000   0.94668072     19.649755      76.859205    
     41000   1.0238622      19.678855      76.573104    
     42000   1.025972       19.721764      76.510241    
     43000   0.97013615     19.749988      76.19842     
     44000   0.97232396     19.723769      75.967767    
     45000   1.0409592      20.660878      75.730325    
     46000   0.99626826     19.759778      75.723443    
     47000   1.0825676      20.259739      75.57875     
     48000   1.0404007      19.43886       75.240997    
     49000   0.99084102     19.932974      75.028877    
     50000   0.98015414     19.629231      74.869001    
     51000   1.0317389      19.587332      74.466994    
     52000   0.97452163     19.711247      74.516582    
     53000   1.0245597      19.963352      74.293803    
     54000   0.96176447     19.594791      74.138781    
     55000   0.97948136     20.567056      74.024762    
     56000   1.0306905      19.960433      73.830254    
     57000   1.0131922      19.611296      73.615493    
     58000   1.0265713      19.816226      73.164678    
     59000   0.94984555     20.477278      72.967523    
     60000   0.99242539     20.591342      72.714833    
     61000   1.0286222      20.42201       72.535083    
     62000   0.99799717     20.152611      72.227753    
     63000   1.0483661      19.949997      71.668101    
     64000   0.99319815     19.629288      71.462665    
     65000   0.98910056     20.003272      71.189953    
     66000   1.0108673      20.179088      71.066633    
     67000   1.0292618      20.213288      71.012779    
     68000   1.0285435      19.685324      70.799583    
     69000   1.0213998      20.145058      70.56224     
     70000   0.98953915     19.43661       70.422392    
     71000   1.00785        20.683912      70.446372    
     72000   1.0489548      20.483024      70.359502    
     73000   0.98837904     19.9376        70.121394    
     74000   0.98683953     19.707236      70.176112    
     75000   0.96489434     20.334907      69.953208    
     76000   0.97151025     19.303357      69.682463    
     77000   0.98400404     20.438075      69.641933    
     78000   0.99866259     20.26892       69.226958    
     79000   1.0148752      20.218735      69.111733    
     80000   1.0311106      20.711137      68.987563    
     81000   1.0013397      20.315649      68.432043    
     82000   1.0316711      20.487191      68.183416    
     83000   1.0199685      20.142594      68.170784    
     84000   0.97688286     20.054383      68.361042    
     85000   0.98308307     19.891653      68.149606    
     86000   1.018218       20.622933      68.176254    
     87000   0.97096807     20.616814      68.172531    
     88000   1.0811895      20.44978       68.06563     
     89000   1.0399532      20.296452      68.284023    
     90000   1.0419827      21.369197      67.979193    
     91000   0.94957668     19.772055      67.862152    
     92000   1.0081553      20.52858       67.869229    
     93000   1.0108064      20.375089      67.674062    
     94000   1.006205       20.31633       67.718312    
     95000   0.96316027     19.992548      67.691726    
     96000   1.0296832      20.676212      67.532836    
     97000   1.0069706      20.18173       67.422355    
     98000   1.0076727      20.35529       67.371491    
     99000   0.97780304     19.679162      67.520463    
    100000   0.96376474     19.656796      67.53737     
Loop time of 295.666 on 2 procs for 100000 steps with 701 atoms

Performance: 292221.416 tau/day, 338.219 timesteps/s
94.8% CPU use with 1 MPI tasks x 2 OpenMP threads

MPI task timing breakdown:
Section |  min time  |  avg time  |  max time  |%varavg| %total
---------------------------------------------------------------
Pair    | 0.823      | 0.823      | 0.823      |   0.0 |  0.28
Bond    | 1.6453     | 1.6453     | 1.6453     |   0.0 |  0.56
Neigh   | 289.03     | 289.03     | 289.03     |   0.0 | 97.76
Comm    | 0.027546   | 0.027546   | 0.027546   |   0.0 |  0.01
Output  | 0.2637     | 0.2637     | 0.2637     |   0.0 |  0.09
Modify  | 3.6358     | 3.6358     | 3.6358     |   0.0 |  1.23
Other   |            | 0.2393     |            |       |  0.08

Nlocal:            701 ave         701 max         701 min
Histogram: 1 0 0 0 0 0 0 0 0 0
Nghost:              0 ave           0 max           0 min
Histogram: 1 0 0 0 0 0 0 0 0 0
Neighs:           4390 ave        4390 max        4390 min
Histogram: 1 0 0 0 0 0 0 0 0 0

Total # of neighbors = 4390
Ave neighs/atom = 6.2624822
Ave special neighs/atom = 1.9971469
Neighbor list builds = 1087
Dangerous builds = 0

# Replace lj potential, now collapse
pair_style      lj/cut 3

# Cutoff simul when gyration under 7
# Variable created with equal requires v_ + 'name'
fix 3 all halt 1000 v_rog < 7

run 5000000
Generated 0 of 0 mixed pair_coeff terms from geometric mixing rule
Last active /omp style is angle_style cosine/omp
Per MPI rank memory allocation (min/avg/max) = 1862 | 1862 | 1862 Mbytes
   Step          Temp         Enthalpy         c_1      
    100000   0.96376474     18.974879      67.53737     
    101000   1.0256474      19.659264      67.510024    
    102000   0.96006304     19.306403      67.191525    
    103000   1.0404753      20.014358      66.88227     
    104000   0.96998503     19.721833      66.979452    
    105000   0.98017942     19.254298      66.721643    
    106000   0.97909521     19.390114      66.50975     
    107000   1.0379915      19.962566      66.559695    
    108000   1.0533776      19.825974      66.274101    
    109000   0.98261153     19.281696      66.129919    
    110000   0.97869958     19.067137      65.654583    
    111000   0.97555801     18.988495      65.640281    
    112000   0.97501996     19.420718      65.490275    
    113000   1.0206731      19.485943      65.236379    
    114000   1.0298919      19.490111      64.907567    
    115000   1.0012017      19.206613      64.671189    
    116000   0.93878151     19.481792      64.226693    
    117000   1.0461547      19.664748      63.760027    
    118000   0.97154502     19.40434       63.488086    
    119000   0.99960851     19.515583      63.194451    
    120000   0.98428772     19.041906      63.03558     
    121000   0.94424201     19.082033      62.999441    
    122000   0.94134748     19.358544      62.63677     
    123000   1.0123061      19.2191        62.457834    
    124000   0.99572073     19.503163      62.370851    
    125000   1.0032646      19.556957      62.286935    
    126000   0.96003084     19.099072      62.100281    
    127000   1.0182022      18.783519      61.864305    
    128000   0.99322239     19.770465      61.819404    
    129000   1.0184299      19.009646      61.588327    
    130000   0.99403572     19.449195      61.657656    
    131000   0.9983644      19.025315      61.606585    
    132000   1.006411       19.598955      61.119677    
    133000   0.96320192     18.808977      60.796715    
    134000   0.97076491     19.02551       60.526204    
    135000   0.99543245     19.315184      60.252632    
    136000   0.97023404     19.014424      59.881716    
    137000   0.97158536     19.283332      59.715558    
    138000   0.9547861      19.108326      59.669838    
    139000   1.0267203      19.674451      59.409647    
    140000   1.0112602      19.272212      59.340475    
    141000   1.030805       19.730793      58.963363    
    142000   0.97656829     19.040746      58.76125     
    143000   1.040885       18.984395      58.375731    
    144000   1.0742389      19.93302       58.032064    
    145000   0.97622545     18.63063       57.58455     
    146000   1.0265995      19.543843      57.591514    
    147000   0.97859207     19.099844      57.666161    
    148000   1.0285887      19.147394      57.242847    
    149000   1.0130774      18.478725      56.715333    
    150000   1.0149219      19.050255      56.769789    
    151000   0.96165616     18.531961      56.328195    
    152000   0.98776429     19.303659      55.986091    
    153000   0.9795837      19.6119        55.824949    
    154000   0.94523528     18.285865      55.518607    
    155000   0.99178709     18.40824       55.492644    
    156000   0.95921952     18.503927      55.512301    
    157000   1.0369025      19.144625      55.598249    
    158000   0.96512567     18.844715      55.714288    
    159000   0.99883379     18.550293      55.525063    
    160000   1.0070361      19.250924      55.045755    
    161000   0.98048843     18.485764      54.566331    
    162000   1.0090735      18.461716      54.310569    
    163000   0.98665416     18.767494      54.191693    
    164000   1.0200675      18.594538      53.952771    
    165000   1.0249992      18.255802      53.677191    
    166000   0.98582036     19.085918      53.441881    
    167000   0.98826345     17.940663      53.158564    
    168000   0.94121813     18.476509      53.030829    
    169000   1.0035494      18.754524      53.033937    
    170000   0.98332288     18.598311      53.148912    
    171000   1.0021437      18.847109      53.050235    
    172000   1.0146838      19.432122      52.762336    
    173000   1.0506186      19.331594      52.614578    
    174000   0.99424251     18.607164      52.321269    
    175000   1.0480662      18.901299      52.045641    
    176000   1.0056004      18.178984      51.996714    
    177000   0.95208617     18.758864      51.724864    
    178000   0.9497921      18.696934      51.771075    
    179000   0.95277988     18.472534      51.584283    
    180000   1.0210293      19.103912      51.737075    
    181000   1.0264076      19.134165      51.463291    
    182000   1.0116336      18.655251      50.924323    
    183000   0.97582571     18.301649      50.580385    
    184000   0.99741918     18.852178      50.348507    
    185000   1.0227626      18.470666      50.099429    
    186000   1.06091        19.061753      49.897351    
    187000   1.0155367      19.521524      49.761542    
    188000   1.0406906      19.084091      49.914988    
    189000   1.013262       18.325603      49.840342    
    190000   0.9926176      18.445825      49.58676     
    191000   0.98444186     18.344236      49.505742    
    192000   1.0259953      18.311216      49.244336    
    193000   1.0075298      18.611966      49.103207    
    194000   0.97457749     18.54112       48.924833    
    195000   1.0626923      18.470735      48.850976    
    196000   0.96713627     18.586318      48.71599     
    197000   1.0020326      18.361739      48.662204    
    198000   0.95498013     18.590086      48.356512    
    199000   0.99642615     19.11163       48.358879    
    200000   1.0499785      19.204906      48.311434    
    201000   1.0155077      18.575652      48.073407    
    202000   1.0216006      19.046023      48.036738    
    203000   1.0294403      18.672771      47.765643    
    204000   1.0391042      19.116451      47.335872    
    205000   0.98221465     17.965449      47.167404    
    206000   0.99967924     18.522789      47.135158    
    207000   1.016677       18.326291      47.153371    
    208000   1.0214445      19.174801      46.851518    
    209000   0.99963348     18.814071      46.633687    
    210000   1.0197296      18.680554      46.321937    
    211000   0.96114925     17.905778      46.080005    
    212000   1.0073177      18.836678      46.028107    
    213000   0.98302476     18.600016      45.875494    
    214000   1.0054106      18.578451      45.456581    
    215000   0.95764364     17.892314      45.171063    
    216000   0.98417638     18.352923      45.159799    
    217000   0.96336959     18.572147      44.895992    
    218000   1.0601034      18.867705      44.867097    
    219000   1.0736654      19.386485      45.103003    
    220000   1.0483819      19.648572      44.991104    
    221000   0.93924494     18.670559      44.728437    
    222000   1.0176654      18.70941       44.568693    
    223000   0.97863551     18.097147      44.519625    
    224000   0.98752691     18.613509      44.385528    
    225000   0.95677735     18.306993      44.056768    
    226000   0.99971307     18.437231      43.928401    
    227000   1.0332638      18.148562      43.898256    
    228000   0.95171506     18.331692      43.702364    
    229000   0.96661768     18.502705      43.487012    
    230000   1.0190894      18.798554      43.32759     
    231000   1.0107987      18.367231      43.125384    
    232000   1.0540528      18.484861      42.486248    
    233000   1.0173584      19.205592      42.411717    
    234000   1.0158396      18.595473      42.202437    
    235000   0.92143277     17.683347      42.109925    
    236000   0.99742898     18.215304      41.679945    
    237000   1.0256513      18.476957      41.617517    
    238000   1.0090891      18.560069      41.447737    
    239000   1.0176525      18.617142      40.966031    
    240000   0.98170447     18.33439       40.891634    
    241000   1.013701       18.001953      40.302096    
    242000   1.0331712      19.053667      39.969547    
    243000   1.0013167      18.320982      39.880375    
    244000   0.98666275     18.381024      39.593776    
    245000   0.98981823     18.861423      39.626682    
    246000   1.0288375      18.513029      39.569898    
    247000   0.97954765     17.835778      39.215771    
    248000   0.97737522     17.951692      39.033585    
    249000   1.0140685      18.462681      38.567991    
    250000   0.99264342     18.328961      38.45936     
    251000   0.99203338     17.959936      38.207681    
    252000   0.99832783     19.078381      37.90491     
    253000   0.92566718     18.67173       37.340645    
    254000   0.98499238     17.896628      37.236828    
    255000   0.98926354     18.548557      37.288984    
    256000   1.0579555      18.051254      36.882439    
    257000   0.99742473     18.695744      36.559844    
    258000   1.00197        19.011494      36.580671    
    259000   1.0401957      18.377481      36.439077    
    260000   1.0243171      18.40883       36.382436    
    261000   0.95550569     17.821983      36.163819    
    262000   1.0182485      19.070215      36.074584    
    263000   1.0060777      18.191927      35.803881    
    264000   1.0236995      19.180073      35.669167    
    265000   1.006218       18.388339      35.470939    
    266000   1.0099702      18.150907      35.409171    
    267000   1.0155081      18.5789        34.886516    
    268000   1.0247082      18.420429      34.639254    
    269000   0.98309264     17.39918       34.574674    
    270000   1.048702       18.312448      34.465187    
    271000   0.95271971     18.593983      34.156628    
    272000   0.972815       17.978913      33.819294    
    273000   1.0268676      19.06235       33.496445    
    274000   1.0518897      18.437671      33.173899    
    275000   1.0450279      18.586105      32.60567     
    276000   1.0304688      18.400382      32.25829     
    277000   1.001841       17.600213      31.762361    
    278000   0.95535545     18.075089      31.701237    
    279000   0.99041148     18.481862      31.559798    
    280000   1.0555618      18.983107      31.529865    
    281000   0.96350476     18.220884      31.028461    
    282000   0.9843783      18.059698      30.779735    
    283000   1.0195483      18.206305      30.707615    
    284000   0.99816766     18.396813      30.581126    
    285000   1.0134461      18.093646      30.410694    
    286000   1.0075931      18.139619      30.366463    
    287000   0.96872305     17.963446      30.124224    
    288000   0.97953787     18.620466      30.039061    
    289000   1.0097579      17.865997      29.805312    
    290000   0.98235443     18.005104      29.750878    
    291000   0.98543171     18.002534      29.464744    
    292000   1.0305958      18.572197      29.355022    
    293000   0.99670656     18.15516       29.215104    
    294000   0.97154867     18.753855      29.265733    
    295000   0.99323244     18.518011      29.030341    
    296000   0.98675043     18.538771      29.078717    
    297000   1.0008668      18.901659      28.785177    
    298000   1.0044066      18.440424      28.789941    
    299000   0.96212215     18.188168      28.60615     
    300000   1.034386       17.651565      28.557068    
    301000   0.98962758     17.829947      28.241348    
    302000   0.98109561     17.978288      28.02493     
    303000   1.0414033      18.713134      27.981122    
    304000   0.93056995     17.687694      27.738391    
    305000   1.0225838      18.428086      27.427391    
    306000   1.0052285      18.678552      27.095321    
    307000   0.94370645     18.267629      26.968566    
    308000   0.97143806     17.536302      26.883828    
    309000   1.0236179      17.741425      26.871624    
    310000   0.98638874     18.042358      26.635873    
    311000   1.0032009      19.081545      26.328733    
    312000   0.92973876     17.611107      26.06024     
    313000   0.97432242     17.652202      25.672744    
    314000   1.0107991      17.758434      25.09024     
    315000   0.97495228     18.386632      24.995925    
    316000   1.0093657      17.312504      24.89865     
    317000   0.99992471     18.630001      25.133127    
    318000   1.0090568      17.843467      24.915038    
    319000   1.0352944      18.340792      24.748292    
    320000   0.97136811     18.091969      24.417746    
    321000   0.99284229     17.613355      23.988953    
    322000   1.0150465      18.111427      23.772526    
    323000   1.0250496      18.277599      23.757393    
    324000   0.97339693     17.849694      23.785257    
    325000   1.0062178      17.546266      23.793577    
    326000   0.99475649     17.577859      23.694935    
    327000   0.9493955      17.291741      23.574422    
    328000   0.98097587     17.821758      23.481999    
    329000   1.0344795      17.546457      23.390436    
    330000   0.99620423     18.282516      23.319417    
    331000   0.980621       18.409454      23.172898    
    332000   1.011436       17.736925      23.135929    
    333000   0.98858769     18.15198       22.931204    
    334000   1.0128489      17.97716       22.678861    
    335000   1.0103663      17.532175      22.59786     
    336000   1.0399075      17.867111      22.405254    
    337000   1.0114728      17.792802      22.038112    
    338000   1.0091248      18.36393       21.835857    
    339000   1.0583036      18.107173      21.438154    
    340000   0.98037116     17.60613       21.409261    
    341000   1.0542069      18.875812      21.083226    
    342000   1.0129158      18.035895      20.998072    
    343000   0.97289048     18.281724      20.729276    
    344000   1.069414       18.06136       20.500254    
    345000   1.0422275      18.052891      20.354212    
    346000   0.98264559     17.451805      20.158709    
    347000   1.0402632      17.292265      19.881134    
    348000   0.94432862     17.680279      19.900286    
    349000   1.0311153      18.892264      19.672387    
    350000   1.0169386      17.906105      19.643164    
    351000   1.0129949      18.016419      19.427422    
    352000   0.92791645     17.292897      19.419763    
    353000   0.97553142     17.942284      19.099295    
    354000   0.99751519     18.185553      19.048851    
    355000   1.0080633      17.929331      18.782834    
    356000   1.0411995      17.198393      18.739001    
    357000   0.96186001     17.285333      18.548219    
    358000   0.98975076     17.494239      18.273171    
    359000   1.0443508      17.677858      18.082704    
    360000   0.9876897      17.178234      17.913775    
    361000   1.077512       18.107943      17.860327    
    362000   1.0386738      17.330661      17.594335    
    363000   1.0005102      17.285271      17.444776    
    364000   1.0340075      17.253817      17.021022    
    365000   0.97647842     17.62848       16.801336    
    366000   0.97831377     18.125146      16.566735    
    367000   0.99973025     17.769094      16.558569    
    368000   1.0093696      17.87254       16.58656     
    369000   0.95979319     17.875988      16.157342    
    370000   0.96393238     17.324055      16.172435    
    371000   1.0230587      17.927852      15.965375    
    372000   1.0448956      17.914785      15.840673    
    373000   1.0355205      18.075911      15.697096    
    374000   1.0359595      17.864764      15.643428    
    375000   0.99502169     17.20595       15.385584    
    376000   1.0494452      17.208509      15.156224    
    377000   0.98077881     17.569674      15.086947    
    378000   1.0004489      17.913412      15.131671    
    379000   0.9934838      17.869789      14.946736    
    380000   0.98073836     17.827452      14.805306    
    381000   0.99770146     18.036497      14.503847    
    382000   1.0144325      18.013291      14.295541    
    383000   0.98580916     18.084736      14.105207    
    384000   0.96068633     17.308361      13.862963    
    385000   1.0096546      17.654954      13.712449    
    386000   0.99726873     18.470376      13.545234    
    387000   1.0176456      18.030038      13.513616    
    388000   0.96303072     17.551756      13.209218    
    389000   1.01304        17.865937      13.126842    
    390000   1.0242548      17.653927      12.922666    
    391000   1.0215651      17.758764      12.881114    
    392000   0.98902252     17.773768      12.932021    
    393000   1.0113552      17.520715      12.851095    
    394000   1.0205505      17.68602       12.911058    
    395000   1.0222073      17.920952      12.846623    
    396000   1.008437       18.03544       12.813114    
    397000   1.0184608      17.740996      12.576137    
    398000   1.0496588      18.520519      12.830691    
    399000   1.0074768      17.342906      12.72529     
    400000   1.0029421      17.595743      12.708817    
    401000   1.0495763      17.706557      12.678821    
    402000   0.9892364      17.403945      12.665391    
    403000   1.0315354      18.020306      12.612675    
    404000   1.0022391      18.257665      12.654965    
    405000   0.99368947     17.704007      12.402645    
    406000   0.95909767     17.776034      12.201018    
    407000   1.0398272      17.225816      11.639394    
    408000   1.0374501      17.524323      11.51328     
    409000   0.98113856     18.369263      11.272848    
    410000   1.018852       17.204248      10.961329    
    411000   0.96128574     17.830679      10.633101    
    412000   0.9713657      17.208955      10.507852    
    413000   1.0089406      17.663604      10.316959    
    414000   0.96526135     17.123864      10.073808    
    415000   0.9762181      17.312374      10.016598    
    416000   0.98044924     17.496584      10.197612    
    417000   1.0026036      17.52653       10.016199    
    418000   0.99144321     17.991478      9.9967257    
    419000   1.0132649      17.5049        9.8780603    
    420000   1.0300262      17.321735      9.7617775    
    421000   1.002661       17.582193      9.5824811    
    422000   1.0342667      18.136176      9.6068255    
    423000   0.99897006     17.125334      9.3000605    
    424000   0.98972208     17.089136      9.3741305    
    425000   1.0157694      17.603767      9.0527583    
    426000   1.0028167      17.44861       8.6221982    
    427000   0.984773       18.011247      8.5933954    
    428000   1.0046645      17.92675       8.2963161    
    429000   1.0177855      17.456399      8.1045545    
    430000   1.0184989      17.49817       7.9179063    
    431000   0.97752989     17.396574      7.6678669    
    432000   1.0344698      17.678512      7.4650331    
    433000   1.032767       17.405956      7.2360782    
    434000   0.95227865     17.516749      7.2151083    
    435000   0.98999642     16.835804      7.09275      
Fix halt condition for fix-id 3 met on step 436000 with value 6.977760584760587 (src/fix_halt.cpp:237)
    436000   1.020039       17.193062      6.9777606    
Loop time of 424.877 on 2 procs for 336000 steps with 701 atoms

Performance: 683266.182 tau/day, 790.817 timesteps/s
108.4% CPU use with 1 MPI tasks x 2 OpenMP threads

MPI task timing breakdown:
Section |  min time  |  avg time  |  max time  |%varavg| %total
---------------------------------------------------------------
Pair    | 48.8       | 48.8       | 48.8       |   0.0 | 11.49
Bond    | 5.9249     | 5.9249     | 5.9249     |   0.0 |  1.39
Neigh   | 355.33     | 355.33     | 355.33     |   0.0 | 83.63
Comm    | 0.11275    | 0.11275    | 0.11275    |   0.0 |  0.03
Output  | 0.90068    | 0.90068    | 0.90068    |   0.0 |  0.21
Modify  | 12.904     | 12.904     | 12.904     |   0.0 |  3.04
Other   |            | 0.9092     |            |       |  0.21

Nlocal:            701 ave         701 max         701 min
Histogram: 1 0 0 0 0 0 0 0 0 0
Nghost:              0 ave           0 max           0 min
Histogram: 1 0 0 0 0 0 0 0 0 0
Neighs:         114341 ave      114341 max      114341 min
Histogram: 1 0 0 0 0 0 0 0 0 0

Total # of neighbors = 114341
Ave neighs/atom = 163.11127
Ave special neighs/atom = 1.9971469
Neighbor list builds = 3135
Dangerous builds = 0

# This simulation is done
# Move onto the next one
clear
  using 2 OpenMP thread(s) per MPI task
package omp 0
using multi-threaded neighbor list subroutines
next f
jump SELF

###
# Reference paper:
# K. Kremer and G. S. Grest
# Dynamics of entangled linear polymer melts: A molecular-dynamics simulation
# J Chem Phys 92, 5057 (1990)

##################################
# MIHIR: for branched polymers
# LJ minimum first to expand and explore, then collapse
###

###
# Looping through the various N1B4 polymers to simulate,
# define variables to switch through
variable f index bb51nuc1bl25bn4d30tot100V2 bb101nuc1bl50bn4d30tot200V2 bb151nuc1bl75bn4d30tot300V2 bb201nuc1bl100bn4d30tot400V2 bb251nuc1bl125bn4d30tot500V2 bb301nuc1bl150bn4d30tot600V2 bb351nuc1bl175bn4d30tot700V2 bb401nuc1bl200bn4d30tot800V2 bb451nuc1bl225bn4d30tot900V2 bb501nuc1bl250bn4d30tot1000V2 bb551nuc1bl275bn4d30tot1100V2 bb601nuc1bl300bn4d30tot1200V2
# variable f index bb51nuc1bl25bn4d30tot100V3 bb101nuc1bl50bn4d30tot200V3 bb151nuc1bl75bn4d30tot300V3 bb201nuc1bl100bn4d30tot400V3 bb251nuc1bl125bn4d30tot500V3 bb301nuc1bl150bn4d30tot600V3 bb351nuc1bl175bn4d30tot700V3 bb401nuc1bl200bn4d30tot800V3 bb451nuc1bl225bn4d30tot900V3 bb501nuc1bl250bn4d30tot1000V3 bb551nuc1bl275bn4d30tot1100V3 bb601nuc1bl300bn4d30tot1200V3
# variable f index bb51nuc1bl25bn4d30tot100 bb101nuc1bl50bn4d30tot200 bb151nuc1bl75bn4d30tot300 bb201nuc1bl100bn4d30tot400 bb251nuc1bl125bn4d30tot500 bb301nuc1bl150bn4d30tot600 bb351nuc1bl175bn4d30tot700 bb401nuc1bl200bn4d30tot800 bb451nuc1bl225bn4d30tot900 bb501nuc1bl250bn4d30tot1000 bb551nuc1bl275bn4d30tot1100 bb601nuc1bl300bn4d30tot1200
###


###
# Box and units  (use LJ units and periodic boundaries)
###

units lj
log N1B4/trial2/logs3/$f.log
log N1B4/trial2/logs3/bb401nuc1bl200bn4d30tot800V2.log
