#atom_style bond #no stiffness
atom_style angle #with stiffness

boundary        p p p
###
# Pair interactions require lists of neighbours to be calculated
###

#neighbor 0.3 bin
neighbor 4 bin

neigh_modify every 1 delay 1 check yes
atom_modify sort 0 0
### Generate RESTART file, SPECIAL format, not a .txt file ###
### Useful if simulation crashes ###

restart 1000000 N1B4/trial2/restarts3/$f.restart
restart 1000000 N1B4/trial2/restarts3/bb551nuc1bl275bn4d30tot1100V2.restart
#############################



### READ "start" data file ###

read_data N1B4/trial2/dats2/$f.dat
read_data N1B4/trial2/dats2/bb551nuc1bl275bn4d30tot1100V2.dat
Reading data file ...
  orthogonal box = (-1000 -1000 -1000) to (1000 1000 1000)
  1 by 1 by 1 MPI processor grid
  reading atoms ...
  1101 atoms
  scanning bonds ...
  3 = max bonds/atom
  scanning angles ...
  6 = max angles/atom
  reading bonds ...
  1100 bonds
  reading angles ...
  1102 angles
Finding 1-2 1-3 1-4 neighbors ...
  special bond factors lj:    0        0        0       
  special bond factors coul:  0        0        0       
     4 = max # of 1-2 neighbors
     4 = max # of 1-3 neighbors
     8 = max # of 1-4 neighbors
    12 = max # of special neighbors
  special bonds CPU = 0.002 seconds
  read_data CPU = 0.254 seconds

######################

### READ "REstart" data file ###

######################



###
# Define groups (atom type 1 is group 'all')
###
group all type 1
1101 atoms in group all


###
# Dump configs - "simple dumpings"
###

###
# Dump configs + box coords
###

dump   1   all   custom   1000  N1B4/trial2/trjs3/$f.lammpstrj  id  x y z  ix iy iz
dump   1   all   custom   1000  N1B4/trial2/trjs3/bb551nuc1bl275bn4d30tot1100V2.lammpstrj  id  x y z  ix iy iz
dump_modify   1   format line "%d %.5f %.5f %.5f %d %d %d"

########################################################################


###################################################################
# Stiffness term
#
# E = K * (1+cos(theta)), K>0
#
angle_style   cosine
#change this coefficient to change stiffness (e.g. 1,5,10)
angle_coeff   1 1.0
###################################################################

###################################################################
# Pair interaction between non-bonded atoms
#
#  Lennard-Jones 12-6 potential with cutoff:
#  potential E=4epsilon[ (sigma/r)^12 - (sigma/r)^6]  for r<r_cut
#
#  1.12246 = 2^(1/6) is the minimum of the potential


pair_style      lj/cut 1.12246152962189
#pair_style      lj/cut 3

#
#  pair_modify shift yes adds a constant to the potential such

#  that E(r_cut)=0. Forces remains unchanged.
#

pair_modify     shift yes

#
#  pair_coeff for lj/cut, specify 4:
#    * atom type interacting with
#    * atom type
#    * epsilon (energy units)
#    * sigma (distance units)
#

pair_coeff      1 1 1.0 1.0
###################################################################

###################################################################
# Pair interaction between non-bonded atoms
#
#  soft potential, for PUSHING apart overlapping atoms
#  potential E=A*(1 + cos(pi*r/r_c))
#
#  1.12246 = 2^(1/6) is the cut-off r_c

#pair_style     soft 1.12246152962189

#
#  pair_coeff for soft, specify 3:
#    * atom type interacting with
#    * atom type
#    * A
#
#

#pair_coeff      1 1 100.0
###################################################################

###################################################################
# Pair interaction between bonded atoms
#
# Fene potential + Lennard Jones 12-6:

#
#  E= - 0.5 K R0^2 ln[ 1- (r/R0)^2]
#     + 4epsilon[ (sigma/r)^12 - (sigma/r)^6] + epsilon
#

bond_style   fene


#
# For style fene, specify:
#   * bond type
#   * K (energy/distance^2)
#   * R0 (distance)
#   * epsilon (energy)  (LJ component)
#   * sigma (distance)  (LJ component)
#


special_bonds fene #<=== I M P O R T A N T (new command)
Finding 1-2 1-3 1-4 neighbors ...
  special bond factors lj:    0        1        1       
  special bond factors coul:  0        1        1       
     4 = max # of 1-2 neighbors
    12 = max # of special neighbors
  special bonds CPU = 0.001 seconds

bond_coeff   1   30   2   1.0   1.0


###################################################

###################################################################
# Pair interaction between bonded atoms
#
# Harmonic potential:
#
#  E= K * (R-R0)^2
#

#bond_style   harmonic

#
# For style harmonic, specify:
#   * bond type
#   * K (energy/distance^2)
#   * R0 (distance)
#

#bond_coeff   1   60.0   1.0
#bond_coeff   2   harmonic 0.1   1.0

###################################################
compute 1 all gyration
variable rog equal c_1
#compute 2 all coord/atom cutoff 1.1

#dump 2 all custom 10000 contact_number.dump id c_2


###
# Set up fixes
###
thermo_style   custom   step  temp enthalpy c_1
fix 1 all nve   ###NVE ensemble

fix 2 all   langevin   1.0 1.0 1.0  778655   ###Langevin integrator Tstart Tstop 1/friction rndseed


##### Sample thermodynamic info  (temperature, energy, pressure, etc.) #####
thermo 1000









############################################################################

###
# set timestep of integrator

timestep 0.01

###
# run integration for a number of steps
###
#run 0
#variable r equal c_1
#if "$r < 63.1" then "quit 1"

# lj potential minimum, cause molecule to explore
run 100000
Generated 0 of 0 mixed pair_coeff terms from geometric mixing rule
Last active /omp style is angle_style cosine/omp
Neighbor list info ...
  update: every = 1 steps, delay = 1 steps, check = yes
  max neighbors/atom: 2000, page size: 100000
  master list distance cutoff = 5.1224615
  ghost atom cutoff = 5.1224615
  binsize = 2.5612308, bins = 781 781 781
  1 neighbor lists, perpetual/occasional/extra = 1 0 0
  (1) pair lj/cut/omp, perpetual
      attributes: half, newton on, omp
      pair build: half/bin/newton/omp
      stencil: half/bin/3d
      bin: standard
WARNING: Communication cutoff 5.12246152962189 is shorter than a bond length based estimate of 5.455. This may lead to errors. (src/comm.cpp:723)
Per MPI rank memory allocation (min/avg/max) = 1862 | 1862 | 1862 Mbytes
   Step          Temp         Enthalpy         c_1      
         0   0              13.250474      144.49757    
      1000   0.98674213     17.858735      143.77075    
      2000   0.97501413     17.941111      143.05826    
      3000   0.98475498     17.965608      142.6078     
      4000   1.0227799      18.159374      142.0055     
      5000   1.0351818      18.132814      141.53021    
      6000   1.0160623      19.000801      141.01376    
      7000   1.0214939      18.422518      140.56325    
      8000   1.0014425      18.595458      140.11924    
      9000   1.0171899      18.80797       139.69394    
     10000   1.0347164      18.396764      139.32514    
     11000   0.98997494     18.512781      138.8305     
     12000   1.0272438      18.877159      138.3921     
     13000   0.99822383     18.621489      137.98741    
     14000   1.0301946      18.799187      137.79729    
     15000   0.97256057     18.608747      137.34269    
     16000   1.0118086      18.792905      137.0148     
     17000   0.97542219     19.364491      136.72979    
     18000   1.052532       19.011208      136.31553    
     19000   0.98087315     18.746068      136.14997    
     20000   1.0006302      19.157727      135.62249    
     21000   1.028517       19.07399       135.31105    
     22000   0.99644323     18.829978      134.92234    
     23000   0.98350865     19.311627      134.57413    
     24000   0.96631914     18.9074        134.36284    
     25000   0.92911169     18.963265      134.21624    
     26000   0.99443366     19.293807      133.80294    
     27000   1.0114035      19.177827      133.75726    
     28000   1.0200036      19.322154      133.50344    
     29000   1.0033425      19.497292      133.49317    
     30000   1.0179881      19.046887      133.32026    
     31000   0.99339295     19.33453       133.07874    
     32000   0.98417476     19.082151      132.89102    
     33000   1.0344993      19.39047       132.60578    
     34000   0.9873314      18.989297      132.37459    
     35000   1.0041974      19.289856      132.09816    
     36000   0.97812814     19.408473      131.77818    
     37000   1.0264657      18.902206      131.52741    
     38000   1.0080837      19.258495      131.43423    
     39000   0.97957875     19.709684      131.1546     
     40000   0.97911785     19.29402       130.55569    
     41000   0.97819658     19.448451      130.18881    
     42000   0.99831283     19.588381      130.04146    
     43000   1.0629793      19.666427      129.68251    
     44000   0.97870776     19.729623      129.41784    
     45000   1.0046709      19.698838      129.20674    
     46000   1.0388672      19.8619        129.06132    
     47000   1.0088161      19.486886      128.71544    
     48000   0.95090131     19.440242      128.5058     
     49000   1.0207539      19.64066       128.29547    
     50000   0.99576499     19.670006      127.80337    
     51000   1.0004326      19.469445      127.45174    
     52000   1.0064365      19.195738      127.22769    
     53000   1.027474       19.161277      126.93328    
     54000   1.0186499      19.509562      126.7335     
     55000   0.96146984     19.745885      126.30509    
     56000   1.0316306      19.55766       126.03652    
     57000   0.99586829     19.445926      125.62971    
     58000   1.0181144      19.60754       125.25996    
     59000   0.98015537     19.750328      125.20758    
     60000   1.0466657      19.771081      125.06457    
     61000   1.0006914      19.877951      124.84478    
     62000   1.0065002      19.919596      124.44125    
     63000   1.0389827      19.813635      124.38904    
     64000   0.97930073     20.021028      124.06226    
     65000   1.0197356      19.732923      123.63897    
     66000   1.0368167      19.997806      123.33306    
     67000   0.98929408     19.462343      123.14694    
     68000   1.0114664      20.109852      122.98747    
     69000   1.010449       20.192106      122.75719    
     70000   1.023175       19.777684      122.56663    
     71000   1.0228042      20.227546      122.34719    
     72000   0.97386131     19.731641      122.42164    
     73000   1.0174597      20.608309      122.10088    
     74000   1.023602       20.030703      121.88399    
     75000   1.0281903      19.897991      121.88066    
     76000   0.99375267     19.367994      121.68668    
     77000   1.0487526      19.806765      121.30758    
     78000   0.97535905     19.815383      121.20922    
     79000   0.95137703     19.712496      121.01367    
     80000   0.96490413     19.448684      120.78428    
     81000   1.0146815      19.794331      120.74478    
     82000   1.0131394      19.657913      120.614      
     83000   0.96548377     20.349484      120.38185    
     84000   0.96817745     19.555952      120.25957    
     85000   0.95903686     19.408401      120.09924    
     86000   1.0338665      20.030472      119.97288    
     87000   1.0358341      19.787998      119.84083    
     88000   0.99780636     20.039792      119.59641    
     89000   0.97534086     20.134751      119.57477    
     90000   1.0403382      19.734931      119.52603    
     91000   0.99543336     19.85131       119.49638    
     92000   1.0150166      20.040836      119.39778    
     93000   1.006333       19.701963      119.29658    
     94000   1.0044581      19.7741        118.8825     
     95000   0.99847343     19.977461      118.62653    
     96000   1.0014338      19.65935       118.57361    
     97000   1.0128456      19.776115      118.44954    
     98000   0.98874192     19.453504      118.21426    
     99000   0.99109264     20.182561      118.27411    
    100000   1.0114862      19.84725       118.2141     
Loop time of 302.775 on 2 procs for 100000 steps with 1101 atoms

Performance: 285360.194 tau/day, 330.278 timesteps/s
96.5% CPU use with 1 MPI tasks x 2 OpenMP threads

MPI task timing breakdown:
Section |  min time  |  avg time  |  max time  |%varavg| %total
---------------------------------------------------------------
Pair    | 1.4111     | 1.4111     | 1.4111     |   0.0 |  0.47
Bond    | 2.9951     | 2.9951     | 2.9951     |   0.0 |  0.99
Neigh   | 290.85     | 290.85     | 290.85     |   0.0 | 96.06
Comm    | 0.041857   | 0.041857   | 0.041857   |   0.0 |  0.01
Output  | 0.39621    | 0.39621    | 0.39621    |   0.0 |  0.13
Modify  | 6.6634     | 6.6634     | 6.6634     |   0.0 |  2.20
Other   |            | 0.4223     |            |       |  0.14

Nlocal:           1101 ave        1101 max        1101 min
Histogram: 1 0 0 0 0 0 0 0 0 0
Nghost:              0 ave           0 max           0 min
Histogram: 1 0 0 0 0 0 0 0 0 0
Neighs:           6176 ave        6176 max        6176 min
Histogram: 1 0 0 0 0 0 0 0 0 0

Total # of neighbors = 6176
Ave neighs/atom = 5.609446
Ave special neighs/atom = 1.9981835
Neighbor list builds = 1110
Dangerous builds = 0

# Replace lj potential, now collapse
pair_style      lj/cut 3

# Cutoff simul when gyration under 7
# Variable created with equal requires v_ + 'name'
fix 3 all halt 1000 v_rog < 7

run 5000000
Generated 0 of 0 mixed pair_coeff terms from geometric mixing rule
Last active /omp style is angle_style cosine/omp
Per MPI rank memory allocation (min/avg/max) = 1862 | 1862 | 1862 Mbytes
   Step          Temp         Enthalpy         c_1      
    100000   1.0114862      19.3098        118.2141     
    101000   1.0373483      19.421582      118.04812    
    102000   1.0474096      19.948698      117.97739    
    103000   0.96038117     19.574079      117.96359    
    104000   0.97622614     19.394088      117.7554     
    105000   1.0074905      19.358183      117.45466    
    106000   1.0118927      19.72495       117.32818    
    107000   1.0123568      19.466723      117.31735    
    108000   1.0148723      19.379756      117.28087    
    109000   0.99609396     19.157928      117.12574    
    110000   0.97651597     19.659828      117.13801    
    111000   0.99001891     19.670636      116.76464    
    112000   0.99478707     19.43241       116.53286    
    113000   0.97789225     19.432903      116.25418    
    114000   1.0357128      19.392158      116.16007    
    115000   0.98401003     19.099721      116.07037    
    116000   1.0095466      19.723207      115.81856    
    117000   0.95958549     19.29662       115.60753    
    118000   1.0090964      19.081847      115.36505    
    119000   1.0381208      19.555001      115.28147    
    120000   0.98866999     19.545157      115.05308    
    121000   0.98544302     18.721803      114.6127     
    122000   0.99518095     19.243598      114.56783    
    123000   0.98237548     19.819907      114.44409    
    124000   1.0094118      19.576603      114.40494    
    125000   0.93346976     19.445055      114.40662    
    126000   1.0375454      19.221762      114.26909    
    127000   1.047087       19.497343      113.99657    
    128000   0.99227898     18.884373      113.81526    
    129000   1.0008603      19.093386      113.43894    
    130000   1.0067081      18.923391      113.22111    
    131000   1.0525034      19.839241      113.09828    
    132000   0.99580249     19.243064      112.93873    
    133000   1.0245174      19.38191       112.74194    
    134000   1.0152767      19.405186      112.73083    
    135000   1.0134901      19.404251      112.67251    
    136000   1.0068981      19.484312      112.54172    
    137000   1.0250122      19.700268      112.19294    
    138000   1.0152358      19.407921      111.96247    
    139000   0.9882977      18.980209      111.85472    
    140000   1.0097434      19.265955      111.66095    
    141000   1.0365339      19.492838      111.29804    
    142000   0.98370194     18.926437      111.14445    
    143000   0.98171933     18.821427      110.9125     
    144000   0.95903545     19.184647      110.81674    
    145000   1.066738       18.958853      110.72348    
    146000   0.96906104     19.002688      110.46906    
    147000   1.029836       19.673788      110.31361    
    148000   1.0366224      19.114779      110.14836    
    149000   1.0000235      19.378011      109.9407     
    150000   1.0373224      19.420326      109.76284    
    151000   0.9908227      19.117964      109.6459     
    152000   0.99780741     19.366933      109.26085    
    153000   0.97244702     19.327104      108.95677    
    154000   0.99435718     18.725638      108.80084    
    155000   1.0081052      19.007028      108.57031    
    156000   1.0001031      19.284368      108.49249    
    157000   0.99210367     19.190818      108.2297     
    158000   1.0137697      18.889211      108.13951    
    159000   0.98669586     18.911271      107.85209    
    160000   1.038893       19.208945      107.77896    
    161000   1.0127779      19.206661      107.68389    
    162000   1.0120122      18.743415      107.59242    
    163000   0.93952497     19.156852      107.42592    
    164000   0.9775983      18.979373      107.46197    
    165000   0.99221122     19.186292      107.20735    
    166000   1.0082771      19.12971       106.92893    
    167000   0.99343244     19.247537      106.59128    
    168000   1.0014289      19.434642      106.49452    
    169000   1.0248817      18.929227      106.32786    
    170000   1.0036684      18.981052      106.26733    
    171000   0.9997329      19.352168      106.10517    
    172000   0.94833656     18.443557      106.03125    
    173000   0.99568746     19.05047       105.93829    
    174000   0.96873047     18.817235      106.03287    
    175000   1.0142326      19.109597      105.96438    
    176000   1.013992       19.34197       105.73926    
    177000   0.99164411     18.620748      105.48937    
    178000   0.98963993     18.632332      105.08695    
    179000   1.0030076      19.058207      104.81016    
    180000   0.93290356     18.879213      104.56441    
    181000   0.94895003     18.792229      104.31832    
    182000   0.99274092     19.082545      103.84175    
    183000   1.0128814      19.324984      103.67341    
    184000   0.98152597     19.470605      103.45613    
    185000   1.008681       18.718533      103.17772    
    186000   1.0003789      18.992151      103.03758    
    187000   1.0020318      18.758225      102.78454    
    188000   1.0268462      18.822068      102.58155    
    189000   1.0184196      18.906743      102.41385    
    190000   0.96831887     18.963558      102.40782    
    191000   0.95911756     18.947453      102.39376    
    192000   1.0026577      18.493508      102.15167    
    193000   1.0090639      18.923129      101.78487    
    194000   1.0248634      19.22315       101.45678    
    195000   1.0151209      19.34573       101.4376     
    196000   1.0059365      19.388019      101.36668    
    197000   0.98353796     19.368422      101.27793    
    198000   0.98659444     18.997019      100.82358    
    199000   1.0142548      19.078907      100.65799    
    200000   0.97155332     18.585499      100.40821    
    201000   0.99260289     18.956122      100.17587    
    202000   0.99576956     18.725327      99.977062    
    203000   0.99002481     19.191523      99.632104    
    204000   1.0198644      19.271975      99.467221    
    205000   0.97847549     19.082225      99.324333    
    206000   1.0057501      18.89275       99.080487    
    207000   1.0284119      19.456295      98.683147    
    208000   0.98507093     19.072497      98.597599    
    209000   1.0037061      18.896939      98.390634    
    210000   0.97139341     18.909017      98.393883    
    211000   0.96574237     18.995883      98.081161    
    212000   0.98506459     18.846232      98.055235    
    213000   0.98713998     19.177509      97.77526     
    214000   0.95730302     19.070734      97.398959    
    215000   0.99200474     18.859945      97.086091    
    216000   1.0388388      18.710182      96.900011    
    217000   0.98088462     19.401515      96.70985     
    218000   1.0241445      18.970178      96.67356     
    219000   0.97316463     18.869928      96.438359    
    220000   1.0302176      18.826011      96.197276    
    221000   0.96360363     18.897101      96.144916    
    222000   1.0164883      19.190872      96.172594    
    223000   0.98400576     18.631256      95.970585    
    224000   1.0195759      19.267471      96.012595    
    225000   0.99590217     19.224049      95.880992    
    226000   0.98715524     19.091149      95.687248    
    227000   1.0173479      19.13774       95.649907    
    228000   0.96778069     18.78274       95.587868    
    229000   0.99577476     19.797235      95.493015    
    230000   0.96619894     18.7076        95.361211    
    231000   1.0197177      19.082833      95.205031    
    232000   1.019384       19.266478      95.264818    
    233000   1.0412814      18.893738      95.261586    
    234000   1.0095426      19.655689      95.096937    
    235000   1.0111096      18.816481      94.935078    
    236000   0.96998997     18.436149      94.767495    
    237000   1.031955       19.098336      94.784487    
    238000   0.96130044     19.361633      94.7759      
    239000   1.0065713      18.608479      94.719824    
    240000   0.98661244     18.826219      94.295845    
    241000   1.0029781      19.371599      93.933537    
    242000   1.0387861      18.996523      93.738019    
    243000   0.98066778     19.243282      93.477855    
    244000   0.98208862     18.899648      93.450838    
    245000   1.0151611      18.9993        93.137572    
    246000   1.0182736      19.408755      92.808189    
    247000   0.99961742     18.902807      92.687809    
    248000   1.0255934      18.872135      92.548874    
    249000   0.94386341     18.651447      92.22344     
    250000   0.97475012     18.877156      92.086092    
    251000   1.0240912      18.935685      91.876441    
    252000   0.98812313     18.848854      91.711       
    253000   1.0102469      18.647069      91.359442    
    254000   0.99938192     19.031196      91.308084    
    255000   0.98269376     18.825008      91.300733    
    256000   0.98210924     18.699799      91.106535    
    257000   1.00269        18.819175      91.077321    
    258000   1.0102509      19.176557      91.111852    
    259000   1.0137254      18.936381      91.169915    
    260000   1.024676       18.801891      91.094549    
    261000   0.98767987     18.984466      90.948352    
    262000   1.0045628      18.79138       90.558579    
    263000   0.9889228      18.764974      90.489697    
    264000   0.98729596     19.236387      90.318108    
    265000   0.98526413     18.88466       90.206719    
    266000   1.0159884      18.576214      90.257389    
    267000   0.95971173     19.088563      90.265218    
    268000   0.97462153     18.659344      90.007575    
    269000   0.96790026     18.621744      89.94765     
    270000   1.0106287      19.14105       89.737748    
    271000   1.0449404      19.137913      89.434069    
    272000   1.0241422      18.633228      89.286818    
    273000   0.97926096     18.597798      89.097196    
    274000   1.0099027      18.901674      88.991346    
    275000   0.98057594     19.313472      88.915258    
    276000   0.98388047     18.817629      88.618864    
    277000   1.0280404      19.05667       88.278561    
    278000   1.0407819      18.842026      88.187547    
    279000   0.99196223     18.488508      88.068127    
    280000   0.99825008     18.965248      87.786232    
    281000   1.0032748      18.82416       87.748616    
    282000   1.0350469      18.487824      87.641243    
    283000   1.0372677      18.888264      87.350885    
    284000   0.99510396     18.804484      87.076753    
    285000   0.96507714     18.888752      86.864309    
    286000   1.0279224      18.669894      86.69959     
    287000   0.98843745     18.745431      86.595233    
    288000   0.977468       18.630369      86.432024    
    289000   1.004248       19.305014      85.99527     
    290000   0.96366131     18.774712      85.814197    
    291000   1.0215312      18.69679       85.552138    
    292000   0.97670728     18.893681      85.483385    
    293000   1.0179386      18.879905      85.208295    
    294000   0.98839615     19.035784      85.056623    
    295000   1.0016796      18.232669      84.950143    
    296000   1.0313769      18.914038      84.962501    
    297000   1.0223663      18.767358      84.887052    
    298000   1.0204427      18.986937      84.776966    
    299000   1.0220304      18.867599      84.446069    
    300000   0.99060469     19.161168      84.311779    
    301000   1.0031838      18.760171      84.274892    
    302000   1.0089345      18.805723      84.329611    
    303000   0.9900459      18.84043       84.334751    
    304000   1.00111        18.67643       83.959692    
    305000   1.0089228      18.373106      83.815825    
    306000   1.0346042      18.639559      83.786739    
    307000   1.0327818      18.731433      83.462181    
    308000   1.0001727      18.630718      83.235315    
    309000   1.0016124      18.451996      83.184063    
    310000   1.0118651      18.718098      82.967609    
    311000   1.0176281      18.382841      82.937669    
    312000   0.98504503     18.695407      82.874693    
    313000   1.0291505      19.050767      82.730837    
    314000   0.99422913     18.648346      82.604594    
    315000   1.031416       18.694788      82.355138    
    316000   1.0125114      18.118281      82.25757     
    317000   1.035251       19.017432      82.22941     
    318000   1.0043368      18.846748      82.025209    
    319000   0.98702249     18.80074       81.945551    
    320000   1.0214907      18.969661      81.736519    
    321000   0.93459388     18.641479      81.652144    
    322000   1.0049536      18.923924      81.626669    
    323000   0.99540309     18.57328       81.566973    
    324000   0.98739231     18.816687      81.31475     
    325000   0.94535389     18.577046      81.169268    
    326000   1.0317509      18.252742      81.040903    
    327000   1.0008064      18.605733      80.700868    
    328000   0.99186708     18.967211      80.584837    
    329000   1.001633       18.367285      80.553269    
    330000   1.0101882      18.822804      80.490954    
    331000   1.0013181      19.061401      80.362756    
    332000   1.0094792      19.481565      80.261221    
    333000   1.0223622      18.885592      80.261205    
    334000   1.0211409      18.633514      80.036612    
    335000   0.98837154     18.517632      79.896851    
    336000   0.97181087     18.426718      79.635839    
    337000   0.99651591     18.577572      79.830129    
    338000   0.99660724     18.711987      79.712205    
    339000   1.0136101      18.55396       79.405988    
    340000   1.0051451      18.56737       78.976593    
    341000   0.98896243     18.451205      78.784182    
    342000   1.0202615      18.394401      78.673908    
    343000   0.99565593     18.401444      78.595672    
    344000   0.9700033      18.555403      78.493273    
    345000   0.97686094     18.057823      78.383029    
    346000   1.0219606      18.79748       78.32087     
    347000   1.0274177      18.727863      77.966891    
    348000   0.94704042     18.347883      77.906183    
    349000   0.9972289      18.821187      77.699571    
    350000   0.99189119     18.498724      77.58734     
    351000   1.0327359      18.156245      77.591786    
    352000   0.98656686     18.405865      77.512729    
    353000   1.0242705      18.876555      77.56868     
    354000   1.02294        18.828829      77.29459     
    355000   1.0375799      18.890806      77.113194    
    356000   1.0129426      18.304851      77.150749    
    357000   0.96035019     18.643602      77.063102    
    358000   0.97990941     18.555853      76.948394    
    359000   0.99931598     18.258292      77.002664    
    360000   0.99148484     18.542484      76.87261     
    361000   0.97555293     18.626801      76.95182     
    362000   1.0315099      18.546317      76.618616    
    363000   1.0098502      18.33003       76.468848    
    364000   1.0403672      18.430178      76.395837    
    365000   1.0144538      18.874534      75.965703    
    366000   0.99297312     18.777458      75.936429    
    367000   0.98273436     18.689297      75.714919    
    368000   1.0153794      18.602061      75.51101     
    369000   0.99798974     18.547759      75.459779    
    370000   0.96097246     18.491914      75.146109    
    371000   1.0243186      18.409704      75.06795     
    372000   0.97291022     18.574589      74.982562    
    373000   1.0164501      18.636762      74.88891     
    374000   0.96110916     18.351458      74.874625    
    375000   0.97686697     18.917049      74.79222     
    376000   1.0220191      18.158483      74.393384    
    377000   1.0094117      18.665744      74.234884    
    378000   1.0268809      18.268429      74.112788    
    379000   0.99364033     19.086267      73.945447    
    380000   1.0261217      18.238724      73.682272    
    381000   0.97284987     18.326104      73.390895    
    382000   1.0194622      18.944538      73.18499     
    383000   0.97108682     18.58329       73.234067    
    384000   0.9960552      18.681815      73.18034     
    385000   0.9745961      18.653756      72.996204    
    386000   0.98258429     18.674405      72.860684    
    387000   0.9958028      18.567204      72.688891    
    388000   0.99370919     18.52875       72.305087    
    389000   1.0419813      18.720834      72.257223    
    390000   0.97380518     18.219523      72.143613    
    391000   0.99499232     18.41068       72.003428    
    392000   0.99755364     18.173174      71.744324    
    393000   1.0009828      18.955651      71.505353    
    394000   1.0181016      18.487668      71.297984    
    395000   1.0647062      18.258825      71.076422    
    396000   1.0206013      18.631065      70.808592    
    397000   1.0324819      19.087177      70.612117    
    398000   0.98386843     18.64697       70.624328    
    399000   0.96047238     18.430053      70.311284    
    400000   0.99226318     18.02464       70.339785    
    401000   1.0257799      18.588393      70.2844      
    402000   1.0177229      18.97975       70.051311    
    403000   1.0284185      18.069837      70.142608    
    404000   0.99662542     18.562581      70.243366    
    405000   1.0243999      18.017553      70.179496    
    406000   1.0315824      18.627642      69.87515     
    407000   0.97036042     18.336878      69.820309    
    408000   1.0182729      18.644566      69.866334    
    409000   0.98859942     18.595643      69.842859    
    410000   0.9991202      18.133966      69.659763    
    411000   0.98287003     18.388847      69.457685    
    412000   1.0058443      18.268347      69.48724     
    413000   0.99569111     18.109723      69.37325     
    414000   1.0282976      18.521258      69.288878    
    415000   0.96368916     18.086604      69.192726    
    416000   0.96751788     18.400627      69.131618    
    417000   1.0165413      18.589899      68.998551    
    418000   1.0049792      18.578449      68.782855    
    419000   0.99177553     17.907233      68.79339     
    420000   1.019717       18.014007      68.661928    
    421000   1.0059437      18.299597      68.438557    
    422000   0.99496844     18.252258      68.108316    
    423000   0.98764167     18.246461      67.907498    
    424000   0.98547936     18.628724      67.424092    
    425000   0.99030148     18.164713      67.45098     
    426000   1.002599       18.546033      67.278833    
    427000   0.99592071     18.573141      67.266607    
    428000   0.99876756     18.682         67.245001    
    429000   0.99252558     17.851966      67.011793    
    430000   1.0248914      18.642247      66.895827    
    431000   0.99899897     18.18688       67.066505    
    432000   0.99876848     18.578538      67.107993    
    433000   1.0311523      18.468405      66.949791    
    434000   1.013914       19.169265      66.447835    
    435000   0.9773654      18.195216      66.130517    
    436000   0.96645969     18.059943      65.879895    
    437000   0.95377288     18.173667      65.973514    
    438000   1.0139664      18.321405      65.639125    
    439000   1.0290883      18.182302      65.440979    
    440000   1.0153342      18.380001      65.198739    
    441000   0.99034574     17.942653      64.875751    
    442000   1.0020229      17.875192      64.716169    
    443000   0.98779086     18.298064      64.606672    
    444000   0.96061907     18.498771      64.210349    
    445000   0.98181089     18.079406      64.142471    
    446000   1.0219265      18.347301      64.012804    
    447000   0.99960167     17.742244      63.848817    
    448000   0.99686        18.351228      63.704092    
    449000   1.0050141      17.896881      63.687571    
    450000   1.0149398      18.658501      63.554265    
    451000   0.99054988     18.455253      63.568782    
    452000   0.99427552     17.766383      63.404915    
    453000   1.026255       18.951014      63.189065    
    454000   1.0224225      18.252031      63.405019    
    455000   1.013026       18.082798      63.356817    
    456000   0.98120996     18.598216      63.256542    
    457000   0.99780318     18.816047      62.918517    
    458000   0.99238872     18.780973      62.903796    
    459000   0.94235357     18.199373      62.752509    
    460000   1.0022452      18.035198      62.551097    
    461000   0.96564034     17.885828      62.341674    
    462000   1.0209571      18.123373      62.206998    
    463000   0.99236399     18.444444      62.013813    
    464000   1.0044537      18.599278      61.678222    
    465000   0.99434316     17.943321      61.494873    
    466000   1.0192456      18.14365       61.378106    
    467000   0.96069776     18.009936      61.413293    
    468000   0.96831434     18.41366       61.165633    
    469000   0.98010461     17.867852      61.159513    
    470000   0.99475374     17.912798      60.855968    
    471000   0.97968908     18.316087      60.894139    
    472000   1.0008706      18.243528      60.740795    
    473000   0.96347274     18.491815      60.654114    
    474000   1.0220615      18.738723      60.678496    
    475000   1.0120117      18.227952      60.410868    
    476000   1.0468942      18.300346      60.327044    
    477000   1.006607       18.371432      60.017686    
    478000   0.97012187     18.168712      59.786444    
    479000   1.0066832      17.93866       59.552015    
    480000   0.98408512     18.311846      59.531928    
    481000   1.0324744      18.068101      59.408076    
    482000   0.98954659     17.883864      59.275399    
    483000   0.98623078     18.472379      58.888027    
    484000   1.0079665      18.067599      58.723106    
    485000   1.0334376      18.635851      58.655919    
    486000   0.98143999     18.171973      58.443622    
    487000   0.97505061     18.327138      58.343864    
    488000   0.99225418     18.250779      57.962443    
    489000   1.0052817      17.813156      57.58889     
    490000   1.0092641      18.309515      57.398581    
    491000   1.000499       17.835494      57.426406    
    492000   0.99216133     18.350613      57.338677    
    493000   0.96904072     17.517079      56.913251    
    494000   0.98335689     18.590084      56.822532    
    495000   1.0110039      18.435546      56.71285     
    496000   1.018156       17.748698      56.682398    
    497000   1.0311902      18.119832      56.64946     
    498000   1.0547189      17.873655      56.548737    
    499000   1.0377606      17.985867      56.57071     
    500000   0.98312136     18.482331      56.430643    
    501000   1.0218993      18.156897      56.248877    
    502000   0.98245478     18.063547      56.196958    
    503000   1.0142682      18.210562      56.086912    
    504000   1.0223163      17.566345      55.972338    
    505000   0.99203499     18.06973       56.205014    
    506000   1.0313094      18.003541      56.037834    
    507000   0.98282667     17.841368      56.021746    
    508000   0.96348098     18.221126      55.874802    
    509000   1.0182511      17.620635      55.498388    
    510000   0.98032465     17.982923      55.244337    
    511000   0.97566277     17.834425      55.137513    
    512000   0.99470488     17.75358       55.02238     
    513000   1.0149267      17.93921       54.9737      
    514000   1.0078098      18.404334      55.004124    
    515000   0.98997697     18.14608       54.910852    
    516000   1.015297       17.921729      54.807875    
    517000   1.0185585      18.5255        54.569641    
    518000   0.99171079     17.871608      54.342474    
    519000   1.0395973      17.891855      54.06248     
    520000   1.0132936      18.273863      53.678186    
    521000   1.0394131      18.304786      53.715207    
    522000   1.0501814      18.326649      53.490641    
    523000   0.98652701     18.169362      53.437815    
    524000   1.0068684      18.383575      53.211029    
    525000   1.0031959      18.2258        53.061549    
    526000   1.0007551      18.198292      52.910433    
    527000   1.01815        18.134347      52.913957    
    528000   1.0134596      17.756601      52.799511    
    529000   0.97037298     17.815764      52.439432    
    530000   1.0203096      19.014962      52.022556    
    531000   0.96477754     17.807937      51.821982    
    532000   1.0223994      18.406232      51.550287    
    533000   1.0264319      18.49525       51.509428    
    534000   1.0126049      18.068375      51.481103    
    535000   0.99946162     17.7118        51.382879    
    536000   0.98665994     18.895653      51.317584    
    537000   1.0197098      17.588519      51.253886    
    538000   0.96428203     17.656004      51.209871    
    539000   0.97180692     17.994572      50.954884    
    540000   0.99221275     17.819347      50.881799    
    541000   0.98942405     17.791338      50.781486    
    542000   0.98222837     17.959914      50.583216    
    543000   0.99687641     18.609949      50.419445    
    544000   1.021621       18.196023      50.301279    
    545000   1.0107914      18.364247      50.189191    
    546000   0.97131504     18.016178      50.177516    
    547000   0.96842819     18.111661      49.857658    
    548000   1.0088172      17.977559      49.467909    
    549000   1.0063882      18.079227      49.315427    
    550000   1.0079675      18.146121      49.361827    
    551000   1.0061691      18.128493      49.342761    
    552000   1.0161047      18.455201      49.236707    
    553000   0.99720849     18.188022      49.063123    
    554000   0.97632584     18.335254      49.049013    
    555000   1.0083101      18.266608      48.945265    
    556000   1.0564901      18.726758      48.825794    
    557000   0.98096568     17.645947      48.632748    
    558000   0.99126979     17.662024      48.495941    
    559000   0.97103235     17.506595      48.394776    
    560000   1.0283619      17.362882      48.32544     
    561000   0.98385998     18.020965      48.227556    
    562000   1.0370408      17.922373      48.206281    
    563000   1.0361807      17.757851      47.938011    
    564000   0.95721709     18.045013      47.915374    
    565000   1.010828       18.193574      47.882732    
    566000   1.0083386      17.892082      47.768611    
    567000   0.97781106     17.847657      47.689753    
    568000   0.97501214     18.682251      47.587821    
    569000   0.99563828     17.870058      47.510605    
    570000   1.0083386      17.616975      47.451559    
    571000   1.0089031      17.996361      47.354539    
    572000   1.002664       18.358109      47.109939    
    573000   1.0037497      17.871539      46.905621    
    574000   0.99453991     18.346161      46.728547    
    575000   0.99590853     18.197157      46.710763    
    576000   1.0198726      18.037969      46.737376    
    577000   1.0506127      17.965972      46.813715    
    578000   0.99265367     17.599798      46.635342    
    579000   0.99701664     18.550493      46.575388    
    580000   1.0200651      17.711369      46.609307    
    581000   1.0093832      18.245621      46.6383      
    582000   1.0325429      18.568801      46.598526    
    583000   1.0204757      17.705096      46.524574    
    584000   1.0129976      17.910038      46.43288     
    585000   1.0217916      17.765375      46.245344    
    586000   1.0061026      18.37851       46.150301    
    587000   1.0143574      17.726954      45.825737    
    588000   0.96371317     18.082792      45.749623    
    589000   1.0284882      18.202479      45.33022     
    590000   1.0152494      18.219107      45.1382      
    591000   1.025778       17.864887      45.165964    
    592000   1.0077672      18.185053      45.086133    
    593000   1.0111175      18.482787      44.759989    
    594000   1.0058058      17.887849      44.625605    
    595000   1.0265442      18.167749      44.67297     
    596000   0.99754146     18.415376      44.377348    
    597000   1.0028222      17.964663      44.270211    
    598000   0.99317174     17.222927      44.342505    
    599000   0.98246748     18.108594      44.27574     
    600000   1.0351886      18.452196      44.297589    
    601000   0.9718351      18.020252      44.17375     
    602000   0.98780554     18.02721       43.948225    
    603000   1.0171906      18.186983      43.744823    
    604000   0.97797911     18.052337      43.728056    
    605000   0.96811475     18.271643      43.749839    
    606000   0.97521253     18.112722      43.478571    
    607000   0.9984577      17.77832       43.598343    
    608000   0.99732963     17.913677      43.575716    
    609000   1.009924       18.001397      43.370563    
    610000   0.97883013     17.829158      43.299512    
    611000   0.99769589     18.210626      43.077531    
    612000   1.006636       18.201705      42.92534     
    613000   1.0088383      18.373009      42.913905    
    614000   0.95813738     17.879527      42.646544    
    615000   0.94237403     17.969207      42.550743    
    616000   1.0170558      17.771489      42.397753    
    617000   0.97896895     17.801933      42.25864     
    618000   0.98491219     17.45561       42.155239    
    619000   1.0210163      18.502244      42.067846    
    620000   1.0514277      18.15415       42.094241    
    621000   0.99812766     17.695967      41.91499     
    622000   0.98807509     17.881501      41.806337    
    623000   0.98678004     17.634481      41.682086    
    624000   1.0041378      17.973216      41.465143    
    625000   0.97839339     18.272748      41.243587    
    626000   1.0109052      17.698723      40.904216    
    627000   1.0070623      17.970237      40.7849      
    628000   1.0563324      18.325466      40.505489    
    629000   1.0303767      18.263411      40.339696    
    630000   1.0420777      17.39127       40.259144    
    631000   1.0151677      17.934555      40.015837    
    632000   0.988611       18.144543      39.76715     
    633000   0.99907722     18.245686      39.655573    
    634000   1.0142998      18.10109       39.540748    
    635000   1.0299113      17.881347      39.561145    
    636000   0.97424913     18.373744      39.594776    
    637000   1.0331827      18.044487      39.541408    
    638000   1.0350815      18.62881       39.36428     
    639000   1.0461726      18.294787      39.451435    
    640000   1.0005768      17.700027      39.375023    
    641000   0.99559379     17.452059      39.400831    
    642000   0.98029838     17.990212      39.12103     
    643000   1.025707       17.722353      38.715012    
    644000   0.96772736     17.951209      38.512832    
    645000   0.98226844     18.103409      38.610911    
    646000   0.99312829     18.09287       38.375606    
    647000   0.99689458     18.484686      38.15055     
    648000   0.97777134     17.932225      38.040319    
    649000   0.97090652     17.939243      37.725284    
    650000   1.0017976      18.047333      37.681881    
    651000   0.97329661     17.681857      37.427245    
    652000   0.98854702     18.240359      37.270473    
    653000   0.98521503     17.414115      37.089333    
    654000   1.0204058      18.458975      37.204246    
    655000   1.031738       17.948643      37.089164    
    656000   0.99573402     17.729226      37.029865    
    657000   1.0775252      17.752882      36.900553    
    658000   1.0236205      18.108418      36.742703    
    659000   0.97252088     17.933142      36.565589    
    660000   0.9547014      17.737528      36.467874    
    661000   1.0555848      18.134733      36.490036    
    662000   1.0411112      17.897065      36.208018    
    663000   0.99760471     17.423769      35.920915    
    664000   0.98839956     17.518076      35.541433    
    665000   0.95055601     17.444301      35.364111    
    666000   1.0261617      18.012817      35.283947    
    667000   1.0706577      17.802316      35.420433    
    668000   0.95469367     18.344476      35.275886    
    669000   1.0139324      17.548252      35.100093    
    670000   1.0124373      18.203804      35.041534    
    671000   0.98814457     18.29846       34.872127    
    672000   1.0159639      18.182638      34.790113    
    673000   0.97556656     17.763637      34.766251    
    674000   0.98749896     18.16373       34.632393    
    675000   0.97164683     17.349109      34.603232    
    676000   1.0320507      17.979343      34.618624    
    677000   1.0218592      17.591939      34.548395    
    678000   0.99912415     17.537536      34.548846    
    679000   1.0558763      17.94628       34.433897    
    680000   0.97534386     18.186139      34.296623    
    681000   0.99263069     17.327831      34.410167    
    682000   0.98576918     17.773532      34.271513    
    683000   1.034432       18.099183      34.175468    
    684000   1.0225564      18.010595      34.296261    
    685000   0.99700172     17.439618      34.112188    
    686000   1.0098205      17.62442       33.820725    
    687000   0.99274931     17.793656      33.634297    
    688000   0.98348999     17.595285      33.317728    
    689000   0.98440961     17.972944      33.33499     
    690000   0.9868543      17.576777      33.247393    
    691000   1.0127376      17.850938      33.254598    
    692000   0.99156287     17.861296      33.19742     
    693000   1.0350807      17.384716      32.877312    
    694000   0.97616519     18.367617      32.859078    
    695000   0.9478468      17.66702       32.800785    
    696000   1.0225362      17.993599      32.570602    
    697000   0.95267539     16.875007      32.43964     
    698000   1.0156591      18.001503      31.998764    
    699000   0.9724221      18.020782      31.843057    
    700000   1.0033221      18.074936      31.809643    
    701000   0.93204449     17.227763      31.604214    
    702000   0.98085372     17.516747      31.717479    
    703000   1.0323531      18.139635      32.029299    
    704000   0.99814885     17.900105      32.052779    
    705000   0.96969658     17.383313      31.938916    
    706000   0.98358867     17.664499      31.778874    
    707000   1.0310388      18.116301      31.733863    
    708000   0.99925274     18.092373      31.599102    
    709000   0.96944476     18.079006      31.417247    
    710000   1.0019442      17.305438      31.267197    
    711000   1.0079735      17.782782      31.149398    
    712000   0.98033388     17.811542      30.969911    
    713000   1.0300675      17.981428      30.817402    
    714000   0.98668876     17.344003      30.78471     
    715000   0.99220056     17.773487      30.739124    
    716000   1.0194696      17.509033      30.596279    
    717000   0.99335733     17.68533       30.379647    
    718000   1.0210993      18.072179      30.382379    
    719000   0.98407323     17.758505      30.264907    
    720000   1.0169822      18.090106      30.183569    
    721000   0.97814517     17.689346      29.999092    
    722000   0.9965531      17.55743       30.306275    
    723000   1.0160597      17.88312       30.10259     
    724000   1.0024764      17.49234       29.791684    
    725000   1.0160793      18.102287      29.89557     
    726000   1.0191306      17.661764      29.672788    
    727000   1.0117689      17.357922      29.531797    
    728000   0.97904869     17.665444      29.354233    
    729000   1.0015128      17.620123      29.195801    
    730000   0.97513303     17.361783      29.190587    
    731000   0.96360679     17.712203      29.196033    
    732000   0.99199108     17.701476      28.939305    
    733000   1.039221       17.594259      28.839429    
    734000   1.0243324      17.440194      28.912093    
    735000   1.0190874      17.675285      28.708152    
    736000   1.0246016      17.471538      28.782029    
    737000   1.0034879      17.585105      28.677258    
    738000   1.0008648      17.693721      28.622402    
    739000   0.96944572     17.575492      28.450531    
    740000   1.0320155      17.543432      28.222425    
    741000   1.0388848      17.544675      28.055344    
    742000   0.98357957     17.484611      27.887262    
    743000   1.0077445      18.432769      27.641397    
    744000   0.97983437     17.81768       27.590496    
    745000   0.97730567     18.590115      27.312091    
    746000   1.0411072      17.836391      26.971126    
    747000   1.0006238      17.723373      26.719236    
    748000   0.97585831     17.880955      26.770523    
    749000   0.99234025     17.506977      26.707037    
    750000   0.99881247     17.867775      26.493335    
    751000   1.0151512      16.893359      26.255429    
    752000   0.99473854     17.094062      26.337734    
    753000   0.98042036     18.296642      26.259433    
    754000   0.99444145     18.204815      26.004434    
    755000   0.97543557     17.142207      25.746587    
    756000   0.98275984     17.97906       25.65583     
    757000   0.96179306     17.563241      25.402132    
    758000   0.96344063     18.084286      25.222204    
    759000   0.97704149     17.37561       24.983562    
    760000   0.98209006     17.231716      24.957224    
    761000   1.0078269      17.578948      24.684345    
    762000   1.0020338      17.373872      24.588278    
    763000   0.98247427     17.568475      24.478086    
    764000   1.0551941      18.099766      24.365302    
    765000   1.0146193      17.567397      24.13165     
    766000   0.99326435     17.958753      23.89367     
    767000   1.0475769      17.901479      23.727504    
    768000   0.99243121     18.007599      23.454799    
    769000   0.98825348     17.573387      23.38506     
    770000   1.0021766      17.487237      23.118359    
    771000   1.0082825      17.962944      23.02536     
    772000   1.0333948      17.275565      22.826599    
    773000   1.0017954      17.623546      22.719393    
    774000   0.98196175     17.509501      22.531276    
    775000   0.99047358     17.785329      22.436854    
    776000   0.98792806     17.750415      22.325762    
    777000   0.98953273     17.429097      22.414852    
    778000   1.0033759      17.801152      22.30761     
    779000   0.98076561     17.842798      22.029852    
    780000   1.0673548      17.493555      22.137674    
    781000   1.0357864      18.235886      21.858621    
    782000   0.99178125     17.200807      21.727064    
    783000   0.97125117     17.828214      21.575997    
    784000   0.98947651     17.138198      21.529922    
    785000   1.0025596      17.557383      21.55492     
    786000   0.97748618     17.451499      21.561186    
    787000   1.0178573      17.576195      21.477245    
    788000   0.95598135     18.029617      21.475952    
    789000   0.98779662     17.711484      21.216102    
    790000   0.97391881     18.029706      21.083874    
    791000   0.99891252     17.731744      20.892978    
    792000   0.99865009     17.5201        20.806691    
    793000   0.99409244     17.11896       20.776582    
    794000   0.99472417     17.656168      20.334274    
    795000   1.0267273      17.366302      19.96031     
    796000   0.9955836      17.929864      19.757387    
    797000   1.0031144      17.872712      19.563445    
    798000   1.0047546      17.367517      19.519791    
    799000   1.0274454      17.449875      19.460554    
    800000   1.0559692      17.48835       19.562623    
    801000   1.0225119      17.772535      19.257971    
    802000   1.0068481      17.96411       19.216824    
    803000   1.0162178      17.872722      18.889223    
    804000   1.0208216      18.644599      18.635347    
    805000   0.96256039     17.522789      18.624842    
    806000   0.98655687     17.363229      18.481233    
    807000   1.0157128      17.918422      18.342056    
    808000   1.0185717      17.716649      18.311104    
    809000   0.98618425     17.818839      18.258452    
    810000   0.96715187     17.596902      18.0772      
    811000   0.98823365     17.440939      17.875148    
    812000   1.0154855      17.566451      17.510084    
    813000   0.96581502     17.337563      17.108113    
    814000   1.0160402      17.39074       17.126783    
    815000   1.0040691      17.45212       16.877784    
    816000   0.98894061     17.87315       16.806575    
    817000   0.98430325     17.748699      16.857722    
    818000   0.9589309      17.277093      16.432502    
    819000   1.0241494      17.404879      16.202789    
    820000   1.0295022      17.679009      16.104701    
    821000   0.98165188     16.927896      16.085125    
    822000   1.046813       17.896276      16.075105    
    823000   0.99488765     17.077328      15.962858    
    824000   1.0279819      17.525644      15.822673    
    825000   1.00604        17.471735      15.731235    
    826000   0.99779154     17.397331      15.469326    
    827000   1.0070723      16.91103       15.379145    
    828000   1.0044024      17.510253      15.481389    
    829000   1.0095865      17.354322      15.443397    
    830000   1.0134754      18.35065       15.20393     
    831000   1.0233891      17.456734      15.229843    
    832000   1.0079578      17.524019      15.210797    
    833000   1.0257164      17.604884      14.929504    
    834000   0.98094831     17.805813      14.936428    
    835000   1.0068648      17.412857      14.788621    
    836000   0.97074618     17.097026      14.761784    
    837000   1.0252027      17.758091      14.653408    
    838000   0.99633674     17.61585       14.570386    
    839000   1.0314191      18.328068      14.654508    
    840000   0.97998022     17.630633      14.575804    
    841000   1.0552553      17.426841      14.593493    
    842000   1.0239896      17.781809      14.450926    
    843000   0.97330102     17.548415      14.445857    
    844000   1.0195482      18.108785      14.197452    
    845000   1.0059488      17.15503       13.892165    
    846000   0.98358177     17.410633      13.693108    
    847000   0.98081309     17.060911      13.72516     
    848000   1.0154924      17.661378      13.703954    
    849000   1.0102094      17.238645      13.553725    
    850000   1.0231379      17.711199      13.525773    
    851000   0.98958946     16.534226      13.524186    
    852000   1.0357913      17.927921      13.330728    
    853000   1.0024198      17.5229        13.323681    
    854000   1.0214894      17.591607      13.089287    
    855000   0.9866003      17.644291      13.00001     
    856000   1.0116793      17.706858      12.897109    
    857000   1.0161286      17.421661      12.885768    
    858000   0.97299026     17.709115      12.770475    
    859000   1.0085151      17.698394      12.788512    
    860000   1.0573539      17.542582      12.805954    
    861000   0.98687199     17.820424      12.646029    
    862000   0.99430236     17.692493      12.41189     
    863000   0.99544755     17.353121      12.132021    
    864000   1.006871       17.013862      11.804395    
    865000   1.01206        17.236122      11.720228    
    866000   1.0210881      16.76136       11.603327    
    867000   0.99396796     18.214303      11.699234    
    868000   1.0330674      17.839167      11.663403    
    869000   0.96787506     17.09358       11.433837    
    870000   1.0053899      17.817655      11.522089    
    871000   1.0099314      17.132655      11.272486    
    872000   1.0005022      17.755712      11.072479    
    873000   1.0295208      17.452401      11.015764    
    874000   0.98503401     17.402231      10.975252    
    875000   1.0251432      16.652332      10.888426    
    876000   1.0051522      17.83307       10.918667    
    877000   0.98680904     16.874882      10.83195     
    878000   0.99169767     16.981008      10.825082    
    879000   1.0314146      17.068709      10.569446    
    880000   0.9755548      17.687808      10.523119    
    881000   1.0089474      17.046816      10.483921    
    882000   1.015009       17.280739      10.589132    
    883000   0.97785435     17.325263      10.437979    
    884000   1.04234        16.762269      10.117683    
    885000   1.0020786      17.328498      9.9340521    
    886000   0.98209433     16.646318      9.6065224    
    887000   1.0507905      17.217003      9.3948104    
    888000   0.99667208     18.13897       9.3722136    
    889000   0.99039311     17.462855      9.1143347    
    890000   1.0160746      17.55573       8.9564172    
    891000   1.0219532      17.36346       8.9710111    
    892000   1.0378543      16.82755       8.8490425    
    893000   0.96280837     17.320703      8.8156773    
    894000   1.020945       16.863188      8.8847773    
    895000   0.94576729     16.407708      8.7241363    
    896000   1.0357654      17.551155      8.7463774    
    897000   0.9819489      17.621984      8.559612     
    898000   0.99477659     16.834787      8.5929264    
    899000   0.98650261     17.474365      8.5598671    
    900000   0.99606236     16.816499      8.5741185    
    901000   1.017028       16.8518        8.530661     
    902000   1.002264       17.082766      8.3709804    
    903000   1.0159397      17.0922        8.2522389    
    904000   1.0418653      17.143461      8.1217664    
    905000   0.98916981     16.938913      8.0828684    
    906000   0.97641585     17.058527      8.0009524    
    907000   1.0147908      16.411632      7.9473369    
    908000   0.9820407      16.924017      7.7391859    
    909000   0.99431077     17.216096      7.7634173    
    910000   1.0105343      17.104941      7.6242847    
    911000   0.99571827     17.341117      7.6142703    
    912000   1.0183596      17.304643      7.5286897    
    913000   0.97813962     17.263656      7.5818389    
    914000   1.0523505      17.405202      7.8127794    
    915000   0.98623665     16.961534      7.6956331    
    916000   1.0200471      16.886045      7.5728278    
    917000   0.99402835     16.851996      7.5758782    
    918000   0.98789867     17.363475      7.3626501    
    919000   1.0144478      17.417661      7.2802743    
    920000   1.0082094      17.015958      7.0466767    
Fix halt condition for fix-id 3 met on step 921000 with value 6.853635303682773 (src/fix_halt.cpp:237)
    921000   1.0020476      16.484251      6.8536353    
Loop time of 1090.85 on 2 procs for 821000 steps with 1101 atoms

Performance: 650266.891 tau/day, 752.624 timesteps/s
128.3% CPU use with 1 MPI tasks x 2 OpenMP threads

MPI task timing breakdown:
Section |  min time  |  avg time  |  max time  |%varavg| %total
---------------------------------------------------------------
Pair    | 237.93     | 237.93     | 237.93     |   0.0 | 21.81
Bond    | 24.1       | 24.1       | 24.1       |   0.0 |  2.21
Neigh   | 768.96     | 768.96     | 768.96     |   0.0 | 70.49
Comm    | 0.36883    | 0.36883    | 0.36883    |   0.0 |  0.03
Output  | 3.0462     | 3.0462     | 3.0462     |   0.0 |  0.28
Modify  | 52.975     | 52.975     | 52.975     |   0.0 |  4.86
Other   |            | 3.473      |            |       |  0.32

Nlocal:           1101 ave        1101 max        1101 min
Histogram: 1 0 0 0 0 0 0 0 0 0
Nghost:              0 ave           0 max           0 min
Histogram: 1 0 0 0 0 0 0 0 0 0
Neighs:         245965 ave      245965 max      245965 min
Histogram: 1 0 0 0 0 0 0 0 0 0

Total # of neighbors = 245965
Ave neighs/atom = 223.40145
Ave special neighs/atom = 1.9981835
Neighbor list builds = 8126
Dangerous builds = 0

# This simulation is done
# Move onto the next one
clear
  using 2 OpenMP thread(s) per MPI task
package omp 0
using multi-threaded neighbor list subroutines
next f
jump SELF

###
# Reference paper:
# K. Kremer and G. S. Grest
# Dynamics of entangled linear polymer melts: A molecular-dynamics simulation
# J Chem Phys 92, 5057 (1990)

##################################
# MIHIR: for branched polymers
# LJ minimum first to expand and explore, then collapse
###

###
# Looping through the various N1B4 polymers to simulate,
# define variables to switch through
variable f index bb51nuc1bl25bn4d30tot100V2 bb101nuc1bl50bn4d30tot200V2 bb151nuc1bl75bn4d30tot300V2 bb201nuc1bl100bn4d30tot400V2 bb251nuc1bl125bn4d30tot500V2 bb301nuc1bl150bn4d30tot600V2 bb351nuc1bl175bn4d30tot700V2 bb401nuc1bl200bn4d30tot800V2 bb451nuc1bl225bn4d30tot900V2 bb501nuc1bl250bn4d30tot1000V2 bb551nuc1bl275bn4d30tot1100V2 bb601nuc1bl300bn4d30tot1200V2
# variable f index bb51nuc1bl25bn4d30tot100V3 bb101nuc1bl50bn4d30tot200V3 bb151nuc1bl75bn4d30tot300V3 bb201nuc1bl100bn4d30tot400V3 bb251nuc1bl125bn4d30tot500V3 bb301nuc1bl150bn4d30tot600V3 bb351nuc1bl175bn4d30tot700V3 bb401nuc1bl200bn4d30tot800V3 bb451nuc1bl225bn4d30tot900V3 bb501nuc1bl250bn4d30tot1000V3 bb551nuc1bl275bn4d30tot1100V3 bb601nuc1bl300bn4d30tot1200V3
# variable f index bb51nuc1bl25bn4d30tot100 bb101nuc1bl50bn4d30tot200 bb151nuc1bl75bn4d30tot300 bb201nuc1bl100bn4d30tot400 bb251nuc1bl125bn4d30tot500 bb301nuc1bl150bn4d30tot600 bb351nuc1bl175bn4d30tot700 bb401nuc1bl200bn4d30tot800 bb451nuc1bl225bn4d30tot900 bb501nuc1bl250bn4d30tot1000 bb551nuc1bl275bn4d30tot1100 bb601nuc1bl300bn4d30tot1200
###


###
# Box and units  (use LJ units and periodic boundaries)
###

units lj
log N1B4/trial2/logs3/$f.log
log N1B4/trial2/logs3/bb601nuc1bl300bn4d30tot1200V2.log
