#atom_style bond #no stiffness
atom_style angle #with stiffness

boundary        p p p
###
# Pair interactions require lists of neighbours to be calculated
###

#neighbor 0.3 bin
neighbor 4 bin

neigh_modify every 1 delay 1 check yes
atom_modify sort 0 0
### Generate RESTART file, SPECIAL format, not a .txt file ###
### Useful if simulation crashes ###

restart 1000000 N7B4/trial2/restarts/$f.restart
restart 1000000 N7B4/trial2/restarts/bb254nuc7bl31bn4d30tot700V2.restart
#############################



### READ "start" data file ###

read_data N7B4/trial2/dats2/$f.dat
read_data N7B4/trial2/dats2/bb254nuc7bl31bn4d30tot700V2.dat
Reading data file ...
  orthogonal box = (-1000 -1000 -1000) to (1000 1000 1000)
  1 by 1 by 1 MPI processor grid
  reading atoms ...
  689 atoms
  scanning bonds ...
  3 = max bonds/atom
  scanning angles ...
  6 = max angles/atom
  reading bonds ...
  688 bonds
  reading angles ...
  708 angles
Finding 1-2 1-3 1-4 neighbors ...
  special bond factors lj:    0        0        0       
  special bond factors coul:  0        0        0       
     4 = max # of 1-2 neighbors
     4 = max # of 1-3 neighbors
     8 = max # of 1-4 neighbors
    12 = max # of special neighbors
  special bonds CPU = 0.001 seconds
  read_data CPU = 0.170 seconds

######################

### READ "REstart" data file ###

######################



###
# Define groups (atom type 1 is group 'all')
###
group all type 1
689 atoms in group all


###
# Dump configs - "simple dumpings"
###

###
# Dump configs + box coords
###

dump   1   all   custom   1000  N7B4/trial2/trjs/$f.lammpstrj  id  x y z  ix iy iz
dump   1   all   custom   1000  N7B4/trial2/trjs/bb254nuc7bl31bn4d30tot700V2.lammpstrj  id  x y z  ix iy iz
dump_modify   1   format line "%d %.5f %.5f %.5f %d %d %d"

########################################################################


###################################################################
# Stiffness term
#
# E = K * (1+cos(theta)), K>0
#
angle_style   cosine
#change this coefficient to change stiffness (e.g. 1,5,10)
angle_coeff   1 1.0
###################################################################

###################################################################
# Pair interaction between non-bonded atoms
#
#  Lennard-Jones 12-6 potential with cutoff:
#  potential E=4epsilon[ (sigma/r)^12 - (sigma/r)^6]  for r<r_cut
#
#  1.12246 = 2^(1/6) is the minimum of the potential


pair_style      lj/cut 1.12246152962189
#pair_style      lj/cut 3

#
#  pair_modify shift yes adds a constant to the potential such

#  that E(r_cut)=0. Forces remains unchanged.
#

pair_modify     shift yes

#
#  pair_coeff for lj/cut, specify 4:
#    * atom type interacting with
#    * atom type
#    * epsilon (energy units)
#    * sigma (distance units)
#

pair_coeff      1 1 1.0 1.0
###################################################################

###################################################################
# Pair interaction between non-bonded atoms
#
#  soft potential, for PUSHING apart overlapping atoms
#  potential E=A*(1 + cos(pi*r/r_c))
#
#  1.12246 = 2^(1/6) is the cut-off r_c

#pair_style     soft 1.12246152962189

#
#  pair_coeff for soft, specify 3:
#    * atom type interacting with
#    * atom type
#    * A
#
#

#pair_coeff      1 1 100.0
###################################################################

###################################################################
# Pair interaction between bonded atoms
#
# Fene potential + Lennard Jones 12-6:

#
#  E= - 0.5 K R0^2 ln[ 1- (r/R0)^2]
#     + 4epsilon[ (sigma/r)^12 - (sigma/r)^6] + epsilon
#

bond_style   fene


#
# For style fene, specify:
#   * bond type
#   * K (energy/distance^2)
#   * R0 (distance)
#   * epsilon (energy)  (LJ component)
#   * sigma (distance)  (LJ component)
#


special_bonds fene #<=== I M P O R T A N T (new command)
Finding 1-2 1-3 1-4 neighbors ...
  special bond factors lj:    0        1        1       
  special bond factors coul:  0        1        1       
     4 = max # of 1-2 neighbors
    12 = max # of special neighbors
  special bonds CPU = 0.001 seconds

bond_coeff   1   30   2   1.0   1.0


###################################################

###################################################################
# Pair interaction between bonded atoms
#
# Harmonic potential:
#
#  E= K * (R-R0)^2
#

#bond_style   harmonic

#
# For style harmonic, specify:
#   * bond type
#   * K (energy/distance^2)
#   * R0 (distance)
#

#bond_coeff   1   60.0   1.0
#bond_coeff   2   harmonic 0.1   1.0

###################################################
compute 1 all gyration
variable rog equal c_1
#compute 2 all coord/atom cutoff 1.1

#dump 2 all custom 10000 contact_number.dump id c_2


###
# Set up fixes
###
thermo_style   custom   step  temp enthalpy c_1
fix 1 all nve   ###NVE ensemble

fix 2 all   langevin   1.0 1.0 1.0  778655   ###Langevin integrator Tstart Tstop 1/friction rndseed


##### Sample thermodynamic info  (temperature, energy, pressure, etc.) #####
thermo 1000









############################################################################

###
# set timestep of integrator

timestep 0.01

###
# run integration for a number of steps
###
#run 0
#variable r equal c_1
#if "$r < 63.1" then "quit 1"

# lj potential minimum, cause molecule to explore
run 100000
Generated 0 of 0 mixed pair_coeff terms from geometric mixing rule
Last active /omp style is angle_style cosine/omp
Neighbor list info ...
  update: every = 1 steps, delay = 1 steps, check = yes
  max neighbors/atom: 2000, page size: 100000
  master list distance cutoff = 5.1224615
  ghost atom cutoff = 5.1224615
  binsize = 2.5612308, bins = 781 781 781
  1 neighbor lists, perpetual/occasional/extra = 1 0 0
  (1) pair lj/cut/omp, perpetual
      attributes: half, newton on, omp
      pair build: half/bin/newton/omp
      stencil: half/bin/3d
      bin: standard
WARNING: Communication cutoff 5.12246152962189 is shorter than a bond length based estimate of 5.455. This may lead to errors. (src/comm.cpp:723)
Per MPI rank memory allocation (min/avg/max) = 1862 | 1862 | 1862 Mbytes
   Step          Temp         Enthalpy         c_1      
         0   0              13.272422      42.471493    
      1000   1.0327724      19.240155      41.458705    
      2000   0.99418266     20.382538      40.874439    
      3000   1.0609126      20.274102      40.291356    
      4000   0.98742221     20.11287       39.684841    
      5000   1.0328934      20.041812      39.368931    
      6000   0.92512658     20.226303      38.670179    
      7000   0.96234634     20.882641      38.123179    
      8000   1.022511       19.903586      37.705241    
      9000   0.99116963     20.260226      37.492499    
     10000   0.96679875     20.427261      37.089995    
     11000   1.0174075      20.303732      37.021135    
     12000   0.98672928     20.67015       36.861391    
     13000   1.0051973      20.07784       36.592991    
     14000   1.020714       20.58017       36.281569    
     15000   0.94856136     19.844018      36.265604    
     16000   1.0214267      20.251608      36.216215    
     17000   1.0352814      20.997869      36.4146      
     18000   0.98954544     19.873459      36.220782    
     19000   0.99468023     20.4741        36.283507    
     20000   1.0277151      20.250845      36.386427    
     21000   0.96843578     20.502721      36.152714    
     22000   0.97121402     20.620949      36.133476    
     23000   0.98372909     20.883228      36.258881    
     24000   0.9791174      19.831997      36.311951    
     25000   1.0344385      20.550961      36.373379    
     26000   1.0073465      20.36696       36.049603    
     27000   1.0237509      20.959537      36.018562    
     28000   0.98732981     20.304822      36.190532    
     29000   0.9541983      20.036108      36.143372    
     30000   0.98103772     19.935862      36.004386    
     31000   0.9481362      20.109842      35.83583     
     32000   1.0289904      20.878032      35.89861     
     33000   1.0076089      20.66444       35.917308    
     34000   1.0236981      20.393072      35.640401    
     35000   1.0174962      20.228712      35.425234    
     36000   1.0202153      20.17346       35.087721    
     37000   0.99271405     20.368338      35.150547    
     38000   0.99499932     20.554078      35.033119    
     39000   1.0468551      20.603982      34.735765    
     40000   0.98955279     20.363501      34.846239    
     41000   1.0225909      20.025494      34.713616    
     42000   1.0394845      20.692796      34.854988    
     43000   0.97845981     20.778989      34.907324    
     44000   1.0030024      20.119398      34.622821    
     45000   1.0358972      21.133591      34.49831     
     46000   0.99888705     20.820398      34.290284    
     47000   0.98587776     19.831181      33.981267    
     48000   0.97920815     20.21921       33.940079    
     49000   0.96302867     20.861742      33.760434    
     50000   1.0071524      21.324462      33.670186    
     51000   1.0276903      20.46786       33.416469    
     52000   1.0339308      20.545288      33.537444    
     53000   1.0006169      20.093095      33.162037    
     54000   1.0048713      20.591282      33.061016    
     55000   0.99515107     20.589004      33.125991    
     56000   1.0106386      20.794059      32.758407    
     57000   1.0159485      20.53573       32.598292    
     58000   1.0070855      20.351326      32.415305    
     59000   1.0079652      20.49844       32.538345    
     60000   0.99364992     20.711485      32.570987    
     61000   0.96657988     20.482039      32.554994    
     62000   0.99227774     20.604735      32.63672     
     63000   0.97069274     20.516643      32.67104     
     64000   0.9426855      20.647606      32.377765    
     65000   0.99780872     20.802396      32.419318    
     66000   0.9925482      20.963503      32.419892    
     67000   0.994883       20.633411      32.035343    
     68000   1.0394056      20.681551      32.037397    
     69000   1.0080537      20.800948      31.825981    
     70000   0.97596817     20.90849       31.834825    
     71000   0.93804326     19.627167      31.903692    
     72000   1.0094049      20.713596      32.127888    
     73000   0.98519855     20.079773      32.120779    
     74000   0.99738128     20.344312      32.001462    
     75000   1.0161109      20.541983      32.024609    
     76000   0.94387625     20.47735       31.968604    
     77000   1.0199279      20.324434      31.948838    
     78000   0.98137558     21.172736      32.049032    
     79000   0.97795669     20.794512      32.212567    
     80000   1.0244398      20.232882      32.134114    
     81000   0.94852684     19.841199      31.951892    
     82000   1.0294259      20.79887       31.771972    
     83000   1.0026056      20.643736      31.641869    
     84000   0.99141878     20.473945      31.499236    
     85000   0.98702995     20.467615      31.328765    
     86000   0.9867323      20.45911       31.241057    
     87000   1.0145553      20.684487      31.130182    
     88000   1.0600474      21.482071      30.918129    
     89000   1.0364305      20.994186      30.909257    
     90000   0.99216382     20.339444      30.724382    
     91000   0.97767429     20.869299      30.626272    
     92000   1.0048125      20.636467      30.597455    
     93000   1.039228       21.274825      30.675887    
     94000   1.0152016      20.447794      30.676785    
     95000   1.0077992      20.888059      30.359064    
     96000   0.97590245     20.331042      30.406396    
     97000   0.93764807     20.600554      30.445223    
     98000   1.0289205      20.448121      30.330178    
     99000   1.01376        20.589117      30.423865    
    100000   1.0254635      20.732388      30.451803    
Loop time of 259.062 on 2 procs for 100000 steps with 689 atoms

Performance: 333511.137 tau/day, 386.008 timesteps/s
102.8% CPU use with 1 MPI tasks x 2 OpenMP threads

MPI task timing breakdown:
Section |  min time  |  avg time  |  max time  |%varavg| %total
---------------------------------------------------------------
Pair    | 1.0938     | 1.0938     | 1.0938     |   0.0 |  0.42
Bond    | 1.3781     | 1.3781     | 1.3781     |   0.0 |  0.53
Neigh   | 253.1      | 253.1      | 253.1      |   0.0 | 97.70
Comm    | 0.021314   | 0.021314   | 0.021314   |   0.0 |  0.01
Output  | 0.22458    | 0.22458    | 0.22458    |   0.0 |  0.09
Modify  | 3.0384     | 3.0384     | 3.0384     |   0.0 |  1.17
Other   |            | 0.2075     |            |       |  0.08

Nlocal:            689 ave         689 max         689 min
Histogram: 1 0 0 0 0 0 0 0 0 0
Nghost:              0 ave           0 max           0 min
Histogram: 1 0 0 0 0 0 0 0 0 0
Neighs:           7481 ave        7481 max        7481 min
Histogram: 1 0 0 0 0 0 0 0 0 0

Total # of neighbors = 7481
Ave neighs/atom = 10.857765
Ave special neighs/atom = 1.9970972
Neighbor list builds = 1162
Dangerous builds = 0

# Replace lj potential, now collapse
pair_style      lj/cut 3

# Cutoff simul when gyration under 7
# Variable created with equal requires v_ + 'name'
fix 3 all halt 1000 v_rog < 7

run 3000000
Generated 0 of 0 mixed pair_coeff terms from geometric mixing rule
Last active /omp style is angle_style cosine/omp
Per MPI rank memory allocation (min/avg/max) = 1862 | 1862 | 1862 Mbytes
   Step          Temp         Enthalpy         c_1      
    100000   1.0254635      19.827893      30.451803    
    101000   0.98153101     20.035169      30.104923    
    102000   0.99367219     18.768823      29.908115    
    103000   1.003899       18.506555      29.412236    
    104000   1.0148878      19.41312       29.367387    
    105000   0.99086        18.609165      29.448837    
    106000   0.9717423      18.650453      28.804339    
    107000   0.9987115      18.270256      28.854318    
    108000   1.0856011      18.434652      28.884117    
    109000   0.97703801     17.923584      28.70405     
    110000   0.99153327     17.609537      28.675159    
    111000   1.0419563      18.072353      28.333014    
    112000   1.008356       18.157834      28.170228    
    113000   1.005285       18.27026       28.231302    
    114000   0.98398186     17.824742      27.974161    
    115000   0.96827835     18.322923      27.674613    
    116000   1.041023       18.364134      27.381775    
    117000   1.0324964      19.103072      27.001229    
    118000   1.0267792      18.76575       26.620628    
    119000   1.0436752      18.303853      26.401198    
    120000   0.9682294      18.303183      26.133271    
    121000   1.0287235      18.480946      25.874381    
    122000   0.9928123      17.776481      25.919846    
    123000   0.98459534     17.661159      25.888411    
    124000   1.0460782      17.943695      25.850323    
    125000   1.0168587      18.663637      25.693132    
    126000   1.0735522      18.05228       25.422272    
    127000   1.0139499      17.86268       25.470304    
    128000   0.92779824     17.959021      25.509382    
    129000   1.0086633      18.170327      25.412572    
    130000   1.0262656      17.765063      25.146201    
    131000   0.97272473     17.566722      24.865081    
    132000   0.9902724      18.17876       24.395501    
    133000   0.99473685     17.709138      24.409777    
    134000   1.0385796      18.107083      24.193279    
    135000   0.98202324     17.439706      24.224763    
    136000   1.0345044      18.39933       24.158577    
    137000   1.0549675      18.125871      23.841418    
    138000   1.0528107      17.897278      23.464039    
    139000   1.0187449      18.691107      23.714323    
    140000   0.99209124     17.528546      23.636114    
    141000   1.0106682      17.448238      23.230656    
    142000   0.96701607     17.927633      22.981391    
    143000   1.1184262      17.650467      22.815546    
    144000   1.0101946      18.079681      22.696575    
    145000   1.0514146      18.047486      22.231429    
    146000   1.0339061      17.851807      21.860906    
    147000   0.99116727     16.981367      21.488125    
    148000   1.0522001      17.655935      21.320743    
    149000   0.99296579     18.192876      21.246187    
    150000   0.97397075     17.677272      21.028509    
    151000   1.0009864      18.294904      21.029335    
    152000   0.96165959     17.737536      20.894927    
    153000   0.97712556     17.712451      20.837939    
    154000   0.96659838     18.32334       20.686806    
    155000   1.0312413      17.325926      20.686256    
    156000   1.0112908      17.44779       20.634889    
    157000   1.0110416      17.458381      20.576938    
    158000   0.99998307     17.840723      20.565365    
    159000   1.0138148      17.699811      20.48671     
    160000   1.0451382      17.681096      20.541412    
    161000   0.97781547     17.464343      20.254256    
    162000   0.98370011     18.014577      20.386709    
    163000   0.99351534     16.955945      20.472778    
    164000   1.0026889      17.525248      20.261736    
    165000   0.96936575     16.970094      20.005303    
    166000   0.97222555     17.627725      20.037796    
    167000   1.0463988      18.317339      19.793591    
    168000   0.96682158     17.288272      19.922865    
    169000   1.0400686      17.778173      19.976638    
    170000   0.91092348     17.326476      19.628705    
    171000   1.0255398      17.585528      19.686337    
    172000   0.97509532     18.096197      19.208579    
    173000   0.97073289     17.288448      19.04978     
    174000   1.02393        17.356824      18.883707    
    175000   1.0196794      17.351228      18.759073    
    176000   0.99571613     17.55352       18.920808    
    177000   1.0217515      17.931315      18.90876     
    178000   1.0043436      17.644826      18.701988    
    179000   0.95665484     17.498059      18.676488    
    180000   1.0231804      17.476335      18.596665    
    181000   1.0180757      17.799074      18.632895    
    182000   1.0037975      17.687967      18.528377    
    183000   0.96160765     17.604226      18.376493    
    184000   0.97709405     17.205163      18.336153    
    185000   1.0284521      17.994401      18.048584    
    186000   0.98276908     17.724889      17.543029    
    187000   0.99748514     17.681172      17.429773    
    188000   0.95771123     17.624639      17.55484     
    189000   1.0769972      17.444761      17.186739    
    190000   1.0403391      18.010157      17.170862    
    191000   1.0082026      18.185779      17.276762    
    192000   1.022033       17.310146      16.94103     
    193000   1.0008471      17.685846      16.672335    
    194000   0.94111172     17.428907      16.591238    
    195000   0.98761618     17.723073      16.367414    
    196000   1.0579848      17.962168      16.053369    
    197000   1.0029179      17.677064      15.972586    
    198000   0.97352624     16.659732      15.313634    
    199000   1.0417952      17.372218      15.329281    
    200000   0.93659919     17.011175      15.204399    
    201000   0.96942612     17.109909      15.468053    
    202000   1.0072194      17.531264      15.462904    
    203000   1.0227086      17.033942      15.30536     
    204000   1.042492       18.107523      15.179549    
    205000   1.064999       17.18944       15.195492    
    206000   0.94086623     17.09415       14.976368    
    207000   1.0010979      17.256652      14.971028    
    208000   1.0332695      17.226664      14.640826    
    209000   0.99790572     16.896832      14.663527    
    210000   1.0092617      17.495945      14.661655    
    211000   0.98672157     17.266353      14.625283    
    212000   0.99568833     17.597845      14.482146    
    213000   0.99196942     17.774591      14.412113    
    214000   0.99887949     17.138451      13.957148    
    215000   0.91534281     16.917265      13.911046    
    216000   1.0525232      16.960166      13.864334    
    217000   1.0221008      17.207704      13.759727    
    218000   0.98051421     17.519779      13.664077    
    219000   0.98782532     17.36194       13.626621    
    220000   1.0115348      17.900478      13.392654    
    221000   1.0158468      17.308512      13.309825    
    222000   0.99119892     16.846862      13.072672    
    223000   1.0000871      17.509218      13.037062    
    224000   0.9613949      17.322601      12.901904    
    225000   1.00879        17.282776      13.126449    
    226000   1.0580107      17.23764       12.945062    
    227000   0.99510647     17.704973      12.847975    
    228000   0.98166085     17.021358      12.717374    
    229000   0.98638179     17.602478      12.941143    
    230000   0.98904764     17.437255      12.843343    
    231000   0.99931979     17.561815      12.631463    
    232000   0.99363901     17.20173       12.671388    
    233000   0.94977889     17.320309      12.780666    
    234000   1.0350997      17.957451      12.658474    
    235000   1.0233627      16.929953      12.778169    
    236000   0.96439417     17.175638      12.744514    
    237000   1.03279        17.198232      12.678858    
    238000   0.98034161     16.833919      12.585965    
    239000   0.99173539     16.574281      12.531133    
    240000   1.0424918      17.632283      12.373641    
    241000   1.0072085      17.593936      12.334281    
    242000   1.0582908      17.331425      12.07727     
    243000   0.94332356     18.381897      12.176807    
    244000   1.0463057      17.426501      12.081992    
    245000   0.98061594     17.941531      11.780468    
    246000   0.96892443     16.815945      12.008767    
    247000   0.98113311     17.276134      11.901721    
    248000   0.94633034     17.229546      11.792384    
    249000   0.96162838     18.12635       11.645556    
    250000   1.0344018      16.742204      11.579855    
    251000   1.0604673      17.855178      11.471627    
    252000   1.0059922      17.401584      11.686833    
    253000   1.0018237      17.118005      11.486727    
    254000   1.0173563      17.835039      11.066615    
    255000   0.98381624     17.572529      11.180918    
    256000   1.05123        18.417099      11.341127    
    257000   0.98914464     17.183426      11.249089    
    258000   1.0191662      17.965597      11.06682     
    259000   1.0348135      17.404343      10.977662    
    260000   1.002971       16.924299      11.032516    
    261000   1.0297078      17.273213      10.635472    
    262000   1.0061496      16.750661      10.645442    
    263000   1.0125336      17.069086      10.810122    
    264000   0.97525929     16.95958       10.744775    
    265000   1.0287875      17.6963        10.782616    
    266000   0.99386527     17.258936      10.620637    
    267000   1.0029052      17.141453      10.477112    
    268000   1.0234643      17.093252      10.297768    
    269000   0.98910311     16.882383      9.9701781    
    270000   1.0609544      17.319317      10.037666    
    271000   0.95495024     17.666759      9.835004     
    272000   0.92848627     17.597013      9.9534092    
    273000   1.0359084      17.191642      9.9754562    
    274000   0.93975386     17.337479      9.7355941    
    275000   0.99632385     17.33112       9.5141993    
    276000   0.95251056     17.494326      9.37114      
    277000   0.96544815     17.638527      9.5475981    
    278000   0.97676735     17.425434      9.5819835    
    279000   0.99535195     17.030222      9.572363     
    280000   0.99318662     17.643887      9.4746394    
    281000   1.0045881      16.407816      9.1041985    
    282000   1.0264991      17.142863      8.8722638    
    283000   0.98501621     17.195957      8.734735     
    284000   1.0262114      17.782274      8.5444924    
    285000   0.98307666     17.592879      8.4656595    
    286000   1.0173528      16.664488      8.2667605    
    287000   1.001319       17.720065      8.1622616    
    288000   1.0232231      17.202261      8.0666257    
    289000   1.0098538      16.390805      7.8819842    
    290000   0.99202161     17.713945      7.9098005    
    291000   0.97180933     17.305293      7.5951891    
    292000   0.97436145     16.9597        7.3122155    
Fix halt condition for fix-id 3 met on step 293000 with value 6.986848695459193 (src/fix_halt.cpp:237)
    293000   1.0510195      17.057284      6.9868487    
Loop time of 188.707 on 2 procs for 193000 steps with 689 atoms

Performance: 883653.993 tau/day, 1022.748 timesteps/s
125.6% CPU use with 1 MPI tasks x 2 OpenMP threads

MPI task timing breakdown:
Section |  min time  |  avg time  |  max time  |%varavg| %total
---------------------------------------------------------------
Pair    | 37.087     | 37.087     | 37.087     |   0.0 | 19.65
Bond    | 2.6743     | 2.6743     | 2.6743     |   0.0 |  1.42
Neigh   | 142.16     | 142.16     | 142.16     |   0.0 | 75.33
Comm    | 0.042375   | 0.042375   | 0.042375   |   0.0 |  0.02
Output  | 0.47396    | 0.47396    | 0.47396    |   0.0 |  0.25
Modify  | 5.863      | 5.863      | 5.863      |   0.0 |  3.11
Other   |            | 0.4096     |            |       |  0.22

Nlocal:            689 ave         689 max         689 min
Histogram: 1 0 0 0 0 0 0 0 0 0
Nghost:              0 ave           0 max           0 min
Histogram: 1 0 0 0 0 0 0 0 0 0
Neighs:         107194 ave      107194 max      107194 min
Histogram: 1 0 0 0 0 0 0 0 0 0

Total # of neighbors = 107194
Ave neighs/atom = 155.5791
Ave special neighs/atom = 1.9970972
Neighbor list builds = 1538
Dangerous builds = 0

# This simulation is done
# Move onto the next one
clear
  using 2 OpenMP thread(s) per MPI task
package omp 0
using multi-threaded neighbor list subroutines
next f
jump SELF

###
# Reference paper:
# K. Kremer and G. S. Grest
# Dynamics of entangled linear polymer melts: A molecular-dynamics simulation
# J Chem Phys 92, 5057 (1990)

##################################
# MIHIR: for branched polymers
# LJ minimum first to expand and explore, then collapse
###

###
# Looping through the various N7B4 polymers to simulate,
# define variables to switch through
variable f index bb72nuc7bl9bn4d30tot200V2 bb109nuc7bl13bn4d30tot300V2 bb145nuc7bl18bn4d30tot400V2 bb181nuc7bl22bn4d30tot500V2 bb218nuc7bl27bn4d30tot600V2 bb254nuc7bl31bn4d30tot700V2 bb290nuc7bl36bn4d30tot800V2 bb327nuc7bl40bn4d30tot900V2 bb363nuc7bl45bn4d30tot1000V2 bb400nuc7bl50bn4d30tot1100V2 bb436nuc7bl54bn4d30tot1200V2
# variable f index bb36nuc7bl4bn4d30tot100 bb72nuc7bl9bn4d30tot200 bb109nuc7bl13bn4d30tot300 bb145nuc7bl18bn4d30tot400 bb181nuc7bl22bn4d30tot500 bb218nuc7bl27bn4d30tot600 bb254nuc7bl31bn4d30tot700 bb290nuc7bl36bn4d30tot800 bb327nuc7bl40bn4d30tot900 bb363nuc7bl45bn4d30tot1000 bb400nuc7bl50bn4d30tot1100 bb436nuc7bl54bn4d30tot1200
# variable f index  bb36nuc7bl4bn4d30tot100V2
###


###
# Box and units  (use LJ units and periodic boundaries)
###

units lj
log N7B4/trial2/logs/$f.log
log N7B4/trial2/logs/bb290nuc7bl36bn4d30tot800V2.log
