#atom_style bond #no stiffness
atom_style angle #with stiffness

boundary        p p p
###
# Pair interactions require lists of neighbours to be calculated
###

#neighbor 0.3 bin
neighbor 4 bin

neigh_modify every 1 delay 1 check yes
atom_modify sort 0 0
### Generate RESTART file, SPECIAL format, not a .txt file ###
### Useful if simulation crashes ###

restart 1000000 N7B4/trial2/restarts/$f.restart
restart 1000000 N7B4/trial2/restarts/bb290nuc7bl36bn4d30tot800V2.restart
#############################



### READ "start" data file ###

read_data N7B4/trial2/dats2/$f.dat
read_data N7B4/trial2/dats2/bb290nuc7bl36bn4d30tot800V2.dat
Reading data file ...
  orthogonal box = (-1000 -1000 -1000) to (1000 1000 1000)
  1 by 1 by 1 MPI processor grid
  reading atoms ...
  793 atoms
  scanning bonds ...
  3 = max bonds/atom
  scanning angles ...
  6 = max angles/atom
  reading bonds ...
  792 bonds
  reading angles ...
  812 angles
Finding 1-2 1-3 1-4 neighbors ...
  special bond factors lj:    0        0        0       
  special bond factors coul:  0        0        0       
     4 = max # of 1-2 neighbors
     4 = max # of 1-3 neighbors
     8 = max # of 1-4 neighbors
    12 = max # of special neighbors
  special bonds CPU = 0.002 seconds
  read_data CPU = 0.164 seconds

######################

### READ "REstart" data file ###

######################



###
# Define groups (atom type 1 is group 'all')
###
group all type 1
793 atoms in group all


###
# Dump configs - "simple dumpings"
###

###
# Dump configs + box coords
###

dump   1   all   custom   1000  N7B4/trial2/trjs/$f.lammpstrj  id  x y z  ix iy iz
dump   1   all   custom   1000  N7B4/trial2/trjs/bb290nuc7bl36bn4d30tot800V2.lammpstrj  id  x y z  ix iy iz
dump_modify   1   format line "%d %.5f %.5f %.5f %d %d %d"

########################################################################


###################################################################
# Stiffness term
#
# E = K * (1+cos(theta)), K>0
#
angle_style   cosine
#change this coefficient to change stiffness (e.g. 1,5,10)
angle_coeff   1 1.0
###################################################################

###################################################################
# Pair interaction between non-bonded atoms
#
#  Lennard-Jones 12-6 potential with cutoff:
#  potential E=4epsilon[ (sigma/r)^12 - (sigma/r)^6]  for r<r_cut
#
#  1.12246 = 2^(1/6) is the minimum of the potential


pair_style      lj/cut 1.12246152962189
#pair_style      lj/cut 3

#
#  pair_modify shift yes adds a constant to the potential such

#  that E(r_cut)=0. Forces remains unchanged.
#

pair_modify     shift yes

#
#  pair_coeff for lj/cut, specify 4:
#    * atom type interacting with
#    * atom type
#    * epsilon (energy units)
#    * sigma (distance units)
#

pair_coeff      1 1 1.0 1.0
###################################################################

###################################################################
# Pair interaction between non-bonded atoms
#
#  soft potential, for PUSHING apart overlapping atoms
#  potential E=A*(1 + cos(pi*r/r_c))
#
#  1.12246 = 2^(1/6) is the cut-off r_c

#pair_style     soft 1.12246152962189

#
#  pair_coeff for soft, specify 3:
#    * atom type interacting with
#    * atom type
#    * A
#
#

#pair_coeff      1 1 100.0
###################################################################

###################################################################
# Pair interaction between bonded atoms
#
# Fene potential + Lennard Jones 12-6:

#
#  E= - 0.5 K R0^2 ln[ 1- (r/R0)^2]
#     + 4epsilon[ (sigma/r)^12 - (sigma/r)^6] + epsilon
#

bond_style   fene


#
# For style fene, specify:
#   * bond type
#   * K (energy/distance^2)
#   * R0 (distance)
#   * epsilon (energy)  (LJ component)
#   * sigma (distance)  (LJ component)
#


special_bonds fene #<=== I M P O R T A N T (new command)
Finding 1-2 1-3 1-4 neighbors ...
  special bond factors lj:    0        1        1       
  special bond factors coul:  0        1        1       
     4 = max # of 1-2 neighbors
    12 = max # of special neighbors
  special bonds CPU = 0.001 seconds

bond_coeff   1   30   2   1.0   1.0


###################################################

###################################################################
# Pair interaction between bonded atoms
#
# Harmonic potential:
#
#  E= K * (R-R0)^2
#

#bond_style   harmonic

#
# For style harmonic, specify:
#   * bond type
#   * K (energy/distance^2)
#   * R0 (distance)
#

#bond_coeff   1   60.0   1.0
#bond_coeff   2   harmonic 0.1   1.0

###################################################
compute 1 all gyration
variable rog equal c_1
#compute 2 all coord/atom cutoff 1.1

#dump 2 all custom 10000 contact_number.dump id c_2


###
# Set up fixes
###
thermo_style   custom   step  temp enthalpy c_1
fix 1 all nve   ###NVE ensemble

fix 2 all   langevin   1.0 1.0 1.0  778655   ###Langevin integrator Tstart Tstop 1/friction rndseed


##### Sample thermodynamic info  (temperature, energy, pressure, etc.) #####
thermo 1000









############################################################################

###
# set timestep of integrator

timestep 0.01

###
# run integration for a number of steps
###
#run 0
#variable r equal c_1
#if "$r < 63.1" then "quit 1"

# lj potential minimum, cause molecule to explore
run 100000
Generated 0 of 0 mixed pair_coeff terms from geometric mixing rule
Last active /omp style is angle_style cosine/omp
Neighbor list info ...
  update: every = 1 steps, delay = 1 steps, check = yes
  max neighbors/atom: 2000, page size: 100000
  master list distance cutoff = 5.1224615
  ghost atom cutoff = 5.1224615
  binsize = 2.5612308, bins = 781 781 781
  1 neighbor lists, perpetual/occasional/extra = 1 0 0
  (1) pair lj/cut/omp, perpetual
      attributes: half, newton on, omp
      pair build: half/bin/newton/omp
      stencil: half/bin/3d
      bin: standard
WARNING: Communication cutoff 5.12246152962189 is shorter than a bond length based estimate of 5.455. This may lead to errors. (src/comm.cpp:723)
Per MPI rank memory allocation (min/avg/max) = 1862 | 1862 | 1862 Mbytes
   Step          Temp         Enthalpy         c_1      
         0   0              13.260448      44.758301    
      1000   1.0415939      18.911085      43.825063    
      2000   1.0146482      19.85177       43.095289    
      3000   1.0140596      19.812666      42.289726    
      4000   1.0164957      19.771598      41.849737    
      5000   0.97674179     20.476499      41.493788    
      6000   1.0241368      20.378724      41.278476    
      7000   0.98242441     19.924437      40.733011    
      8000   1.0237891      19.874038      40.31717     
      9000   0.94977346     19.975951      40.301937    
     10000   1.0122001      19.561574      40.298158    
     11000   0.96593354     20.792747      40.186082    
     12000   1.007396       20.100653      39.970217    
     13000   0.95019784     20.378564      39.816547    
     14000   1.0160189      20.15478       39.817704    
     15000   0.99310152     21.043934      39.627673    
     16000   1.0061209      20.249873      39.320208    
     17000   1.0260676      20.329232      39.333099    
     18000   0.97520912     20.780303      39.110192    
     19000   1.0133438      20.425633      38.899421    
     20000   0.99049486     20.43545       38.81497     
     21000   1.0247562      20.571325      38.793278    
     22000   1.0439681      20.444301      38.482563    
     23000   1.0128705      20.144616      38.459745    
     24000   0.98902408     20.223206      38.48885     
     25000   1.0350321      20.070869      38.34961     
     26000   1.0209006      20.790071      38.004423    
     27000   0.98266345     21.006945      37.742421    
     28000   1.0225799      20.435038      37.727137    
     29000   0.98527974     20.601707      37.712929    
     30000   0.96705197     20.454555      37.559005    
     31000   0.94810402     20.444463      37.370672    
     32000   0.99664145     20.635557      37.071213    
     33000   1.0240119      20.837181      36.967221    
     34000   0.99322464     20.436004      36.78866     
     35000   0.97232493     21.161304      36.582254    
     36000   0.95957385     20.04882       36.696836    
     37000   1.0033643      20.231282      36.67708     
     38000   0.98593052     20.129799      36.371682    
     39000   0.96269199     20.625738      36.026277    
     40000   0.96586131     20.585506      36.003137    
     41000   1.0671697      20.067361      36.064028    
     42000   1.0543652      20.312829      35.913721    
     43000   1.0051602      20.378146      35.817584    
     44000   1.0348813      20.712023      35.826453    
     45000   1.0288716      20.97235       35.864225    
     46000   0.98008742     20.282715      35.97166     
     47000   0.96965383     20.640362      35.829964    
     48000   0.96385604     20.649102      35.809197    
     49000   1.0707932      20.946213      35.936958    
     50000   1.0182906      20.859514      35.838671    
     51000   1.0362147      20.537991      35.705949    
     52000   0.98223053     20.808867      35.787107    
     53000   1.0304696      20.679978      35.657736    
     54000   0.97888063     20.974783      35.347978    
     55000   1.0110422      20.317427      35.349948    
     56000   0.96908457     20.11635       35.263506    
     57000   0.98339341     20.197133      35.11101     
     58000   0.96750477     20.619465      35.149095    
     59000   0.95083627     20.151425      35.103671    
     60000   0.95088819     20.475589      34.854031    
     61000   1.0076982      20.619696      34.982129    
     62000   0.98371199     20.631849      34.845841    
     63000   1.0072361      20.402994      34.9666      
     64000   0.97065612     19.767368      34.819288    
     65000   0.99047197     20.435775      34.587333    
     66000   0.99107567     20.561048      34.47175     
     67000   0.99375237     20.588514      34.342825    
     68000   1.0180634      20.982756      34.475286    
     69000   1.0250199      20.710389      34.347919    
     70000   1.0172218      20.702218      34.28874     
     71000   0.95799069     20.16717       34.192515    
     72000   1.0550209      19.913325      33.979594    
     73000   1.019296       20.581594      34.228226    
     74000   1.0191459      20.272667      34.47081     
     75000   1.0237436      20.392396      34.531689    
     76000   1.0289447      20.854693      34.507412    
     77000   1.0352052      20.622709      34.290447    
     78000   1.0241259      20.673271      34.415606    
     79000   1.0134307      19.960142      34.405047    
     80000   0.9969535      20.547423      34.402988    
     81000   0.96970879     20.696977      34.154484    
     82000   0.97443609     19.98073       34.005714    
     83000   1.0046079      20.946076      33.851819    
     84000   1.0303853      20.97093       33.680077    
     85000   1.0272321      20.296147      33.72766     
     86000   0.9962271      21.187996      33.82315     
     87000   0.98924495     20.605676      33.73327     
     88000   1.0102419      19.88727       33.42834     
     89000   1.0148266      20.729284      33.390126    
     90000   0.98265884     20.424416      33.489761    
     91000   1.0723613      20.482777      33.440224    
     92000   0.96306562     20.373343      33.68151     
     93000   0.97604874     20.413434      33.467924    
     94000   1.0490459      20.540328      33.435876    
     95000   1.0012612      20.907455      33.232587    
     96000   1.0410335      20.74081       33.140838    
     97000   0.96596412     21.047708      33.184188    
     98000   1.0223992      20.177727      33.191841    
     99000   0.97632588     20.536001      33.180117    
    100000   0.95560997     21.01093       33.501047    
Loop time of 283.93 on 2 procs for 100000 steps with 793 atoms

Performance: 304300.776 tau/day, 352.200 timesteps/s
102.8% CPU use with 1 MPI tasks x 2 OpenMP threads

MPI task timing breakdown:
Section |  min time  |  avg time  |  max time  |%varavg| %total
---------------------------------------------------------------
Pair    | 1.1905     | 1.1905     | 1.1905     |   0.0 |  0.42
Bond    | 1.5298     | 1.5298     | 1.5298     |   0.0 |  0.54
Neigh   | 277.36     | 277.36     | 277.36     |   0.0 | 97.69
Comm    | 0.023799   | 0.023799   | 0.023799   |   0.0 |  0.01
Output  | 0.23526    | 0.23526    | 0.23526    |   0.0 |  0.08
Modify  | 3.3611     | 3.3611     | 3.3611     |   0.0 |  1.18
Other   |            | 0.2244     |            |       |  0.08

Nlocal:            793 ave         793 max         793 min
Histogram: 1 0 0 0 0 0 0 0 0 0
Nghost:              0 ave           0 max           0 min
Histogram: 1 0 0 0 0 0 0 0 0 0
Neighs:           8320 ave        8320 max        8320 min
Histogram: 1 0 0 0 0 0 0 0 0 0

Total # of neighbors = 8320
Ave neighs/atom = 10.491803
Ave special neighs/atom = 1.9974779
Neighbor list builds = 1189
Dangerous builds = 0

# Replace lj potential, now collapse
pair_style      lj/cut 3

# Cutoff simul when gyration under 7
# Variable created with equal requires v_ + 'name'
fix 3 all halt 1000 v_rog < 7

run 3000000
Generated 0 of 0 mixed pair_coeff terms from geometric mixing rule
Last active /omp style is angle_style cosine/omp
Per MPI rank memory allocation (min/avg/max) = 1862 | 1862 | 1862 Mbytes
   Step          Temp         Enthalpy         c_1      
    100000   0.95560997     20.037161      33.501047    
    101000   1.0255259      19.672313      33.320378    
    102000   0.96385605     19.195336      33.321429    
    103000   1.053385       19.18558       33.139661    
    104000   0.95974952     19.302811      33.027162    
    105000   1.0451753      18.599736      32.879043    
    106000   1.0414816      18.964431      32.663905    
    107000   0.98074916     18.682963      32.52508     
    108000   1.0000073      17.823208      32.624563    
    109000   1.0180012      18.417758      32.413411    
    110000   0.99942473     17.990964      32.313127    
    111000   0.95854002     18.274347      31.932775    
    112000   1.0179572      18.841368      31.671512    
    113000   1.0602587      18.243224      31.588693    
    114000   1.0149082      17.930901      31.651791    
    115000   0.98212684     18.923002      31.300756    
    116000   1.0101691      18.286522      30.920086    
    117000   0.98859794     19.066925      30.859701    
    118000   0.93699381     18.10397       30.808269    
    119000   0.97610846     18.248017      30.713367    
    120000   0.99998986     18.483972      30.821069    
    121000   1.0270611      18.294852      30.592173    
    122000   0.97466192     17.843725      30.512148    
    123000   0.99952721     18.113085      30.235322    
    124000   1.0190018      18.192945      30.270394    
    125000   0.94148575     18.336515      30.449209    
    126000   0.98417617     18.007708      30.483682    
    127000   0.94472839     17.896741      30.317775    
    128000   0.98244987     18.821893      30.054627    
    129000   0.9582986      18.293032      29.683852    
    130000   0.993353       18.075826      29.644134    
    131000   0.98575569     18.087457      29.44157     
    132000   0.9972764      18.034204      29.082061    
    133000   1.0021874      17.389868      28.845449    
    134000   0.93101028     17.732947      28.88067     
    135000   1.0378563      18.698907      28.793745    
    136000   0.9843325      17.467015      28.714274    
    137000   0.98971913     17.92853       28.652754    
    138000   0.98031249     17.973837      28.297498    
    139000   1.0469769      17.682562      28.283977    
    140000   1.0168498      17.92861       27.875368    
    141000   1.0192851      18.706882      27.64636     
    142000   1.0020729      19.348048      27.398336    
    143000   1.0355118      18.290258      27.100087    
    144000   1.004739       17.803214      27.048541    
    145000   0.99021219     17.938391      26.803368    
    146000   0.98896008     18.579159      26.595079    
    147000   0.98256097     18.200916      26.543855    
    148000   0.98508602     17.641011      26.402199    
    149000   1.0070278      18.463188      26.460874    
    150000   0.9352468      17.909187      26.070559    
    151000   0.99729584     18.189817      25.767768    
    152000   1.0208918      18.238631      25.683548    
    153000   0.98965784     18.038648      25.585864    
    154000   1.0156409      18.114937      25.578752    
    155000   1.010501       18.078015      25.375052    
    156000   1.071032       18.126874      25.055922    
    157000   0.95505405     17.735024      24.780805    
    158000   1.0300138      17.782521      24.623553    
    159000   0.96205194     17.623335      24.568572    
    160000   1.0258321      18.533272      24.108242    
    161000   1.0177559      17.422275      24.119099    
    162000   0.98068453     18.357889      24.19516     
    163000   1.0020302      17.308661      23.821986    
    164000   1.0273878      17.755769      23.708628    
    165000   0.98066695     17.290209      23.391931    
    166000   1.0252317      17.623621      23.405513    
    167000   0.99939595     17.107116      23.165458    
    168000   1.0563605      18.100329      23.016141    
    169000   0.99133935     17.656417      22.945583    
    170000   0.9776486      17.666779      22.952545    
    171000   0.96476138     17.952188      22.650327    
    172000   0.99320005     17.351185      22.442515    
    173000   0.99881216     18.103525      22.204219    
    174000   1.003186       17.820014      22.354668    
    175000   0.9766394      17.13774       22.242789    
    176000   0.98963172     18.189669      22.065805    
    177000   1.0280109      17.927583      21.856661    
    178000   1.0145314      18.389201      21.8774      
    179000   1.003217       17.92516       21.78236     
    180000   0.94412364     17.893013      21.765484    
    181000   1.0106909      17.585002      21.753455    
    182000   0.93691975     18.135237      21.737544    
    183000   1.0277513      17.648329      21.634678    
    184000   1.007056       18.162406      21.560198    
    185000   0.94994804     17.322991      21.50437     
    186000   0.98463728     17.738924      21.128849    
    187000   1.0463651      17.782757      21.032493    
    188000   0.96041919     17.370593      20.77536     
    189000   0.93923011     17.765944      20.788768    
    190000   0.9861184      17.397756      20.796377    
    191000   1.0027387      16.851757      20.567988    
    192000   1.0099494      18.307041      20.757247    
    193000   1.0309755      17.631008      20.521001    
    194000   1.0233604      17.874336      20.432427    
    195000   0.96530567     16.711408      20.204847    
    196000   1.0164372      18.202154      20.174179    
    197000   1.0242959      17.542872      20.121302    
    198000   1.0219254      17.508754      20.04115     
    199000   1.0206262      18.054176      20.132864    
    200000   1.008681       17.068902      19.971603    
    201000   0.99314774     17.336248      19.663731    
    202000   1.0269368      17.854528      19.788713    
    203000   1.0313914      18.192175      19.791475    
    204000   1.0290715      17.19027       19.817839    
    205000   1.0073627      17.693062      19.668697    
    206000   1.0110033      17.651541      19.675393    
    207000   0.99636367     16.992595      19.591575    
    208000   1.0315499      16.946357      19.457126    
    209000   0.99889906     17.281054      19.253339    
    210000   0.99666628     18.113609      18.969443    
    211000   0.98071365     17.234215      19.009893    
    212000   1.0126712      17.859882      19.091753    
    213000   1.0026557      17.127341      18.888717    
    214000   1.0184297      18.508288      18.654743    
    215000   0.96430523     17.893587      18.689736    
    216000   0.98279724     17.634071      18.537584    
    217000   0.94739323     17.052489      18.645627    
    218000   0.92627911     17.933211      18.507969    
    219000   1.0174687      16.845992      18.709148    
    220000   1.0089167      18.32635       18.688888    
    221000   0.98101032     17.275261      18.813742    
    222000   0.9965287      17.589103      18.73757     
    223000   1.0483413      18.310717      18.655026    
    224000   0.98989096     17.406071      18.696767    
    225000   0.99779447     17.764779      18.451469    
    226000   0.9842841      17.288766      18.24637     
    227000   1.0174177      17.397808      18.12739     
    228000   1.0254975      17.214304      18.025202    
    229000   1.0438162      17.635452      17.938949    
    230000   1.0315391      18.017782      17.822949    
    231000   0.97936738     17.072607      17.770172    
    232000   1.0433674      17.347713      17.541431    
    233000   0.98400975     16.970188      17.801279    
    234000   0.98582996     17.786952      17.804863    
    235000   1.00449        17.616184      17.740536    
    236000   0.97391654     17.042377      17.548057    
    237000   0.97135959     17.099076      17.313508    
    238000   1.0135289      17.939579      17.2587      
    239000   1.0439692      17.560795      17.233051    
    240000   0.96815498     17.084787      16.80579     
    241000   0.99427938     17.109801      16.877115    
    242000   0.9768597      17.13666       16.712429    
    243000   1.0107326      17.781678      16.770642    
    244000   0.97128558     17.728658      16.611605    
    245000   0.98277501     17.058875      16.44025     
    246000   1.0166599      17.591119      16.487811    
    247000   0.9979055      17.196217      16.304672    
    248000   1.002516       18.183624      15.996668    
    249000   0.94553694     17.581664      15.873237    
    250000   1.0602826      18.078884      15.594965    
    251000   0.95657552     17.191918      15.475297    
    252000   1.0247179      17.640825      15.362956    
    253000   0.98981923     16.546329      15.100696    
    254000   1.008328       17.774945      15.158776    
    255000   1.0113761      17.353917      15.25104     
    256000   1.0288867      17.514203      15.074133    
    257000   0.99369686     17.557747      14.83838     
    258000   0.99701814     17.260204      14.597762    
    259000   0.97223557     16.69371       14.368649    
    260000   1.0122123      16.97973       14.292595    
    261000   1.0646633      17.311629      14.058401    
    262000   0.99358904     17.471933      13.98994     
    263000   1.0294763      17.415242      13.873507    
    264000   1.017586       17.524466      13.799413    
    265000   0.98480382     17.192997      13.79848     
    266000   0.9693883      16.965806      13.573684    
    267000   0.99926925     18.10929       13.62515     
    268000   1.0296269      17.510308      13.561964    
    269000   0.95880305     17.515164      13.329738    
    270000   1.0223706      17.98024       13.020633    
    271000   1.0056138      17.912278      13.0591      
    272000   0.97318626     17.184428      13.030161    
    273000   0.99121334     16.764931      12.932338    
    274000   0.96374409     17.258013      12.779415    
    275000   1.0139285      17.387301      12.682361    
    276000   0.99347892     17.582465      12.790544    
    277000   1.0302404      17.567067      12.690243    
    278000   0.99550629     17.44046       12.619616    
    279000   1.0395522      17.553592      12.115391    
    280000   1.0348865      17.215784      11.709363    
    281000   0.99988268     17.840142      11.376959    
    282000   1.0024209      18.446731      11.183539    
    283000   1.0110919      17.247004      11.104848    
    284000   0.95411623     17.040341      10.900041    
    285000   1.0164305      16.680652      10.804964    
    286000   1.0067755      17.158737      10.731362    
    287000   1.0308877      16.74545       10.755468    
    288000   1.0483472      17.113909      10.808107    
    289000   0.99324509     16.945092      10.91644     
    290000   1.0170332      17.323297      10.961893    
    291000   0.9929879      17.326016      10.583292    
    292000   0.98658708     17.723252      10.569677    
    293000   0.9888986      17.241482      10.423874    
    294000   0.96835515     16.830787      10.445616    
    295000   1.0320583      17.137018      10.547923    
    296000   1.0397099      17.256491      10.430336    
    297000   0.9952584      17.790141      10.54175     
    298000   0.96393299     17.704172      10.350335    
    299000   1.0465298      17.299694      10.248662    
    300000   0.9888667      17.031447      10.150224    
    301000   1.0155695      17.063573      10.053318    
    302000   0.9883881      17.233016      9.9366062    
    303000   0.99183299     17.536484      9.7866281    
    304000   0.9789367      17.597321      9.5289358    
    305000   0.96196068     16.865958      9.4573648    
    306000   0.95572014     17.415723      9.4350158    
    307000   0.98683084     17.120585      9.3910972    
    308000   1.020415       17.680505      9.3274709    
    309000   0.99468165     17.916035      9.2687085    
    310000   1.0065501      16.700328      9.3655295    
    311000   0.96399754     16.72652       9.4156234    
    312000   1.0571688      17.10223       9.5100426    
    313000   1.057413       17.153578      9.5117772    
    314000   0.9770288      16.958869      9.5633919    
    315000   1.027324       17.861826      9.616046     
    316000   0.98920844     17.726453      9.5743088    
    317000   0.93800857     17.249215      9.5041487    
    318000   0.99773725     17.275259      9.2972126    
    319000   1.0093147      16.977614      9.0672057    
    320000   1.0199205      17.579624      8.8427431    
    321000   1.0060114      17.290287      8.7603073    
    322000   0.97413851     16.344352      8.616564     
    323000   1.0032938      17.028738      8.4358659    
    324000   0.99441504     17.164502      8.2603039    
    325000   0.93120332     16.945999      8.2824132    
    326000   0.97289923     17.347337      8.1370224    
    327000   1.0360077      17.381893      8.1825654    
    328000   0.96360501     16.928377      8.1296348    
    329000   1.0402455      17.117572      8.1777569    
    330000   0.97748053     17.359829      8.246657     
    331000   1.026925       17.245066      8.2391213    
    332000   1.030041       16.870612      8.1943037    
    333000   0.99520537     17.168432      8.3485278    
    334000   0.99793297     16.705376      8.3001752    
    335000   1.031186       17.701864      8.1008177    
    336000   1.0066754      17.074423      8.0524281    
    337000   1.0180294      17.257596      7.9653703    
    338000   0.99582029     16.462648      7.8510188    
    339000   1.0018912      17.323504      7.8199943    
    340000   1.0077412      17.2219        7.719729     
    341000   1.034019       17.733684      7.5622696    
    342000   0.9568977      16.824796      7.5806583    
    343000   0.99487531     16.241019      7.4122567    
    344000   0.98663628     17.561353      7.1650664    
    345000   0.97531052     16.729194      7.3184428    
    346000   0.96855617     17.130248      7.2411946    
    347000   0.97446923     17.891414      7.23411      
    348000   0.97707281     16.78882       7.0419616    
Fix halt condition for fix-id 3 met on step 349000 with value 6.653822658681536 (src/fix_halt.cpp:237)
    349000   0.96558894     17.386749      6.6538227    
Loop time of 251.428 on 2 procs for 249000 steps with 793 atoms

Performance: 855656.345 tau/day, 990.343 timesteps/s
129.3% CPU use with 1 MPI tasks x 2 OpenMP threads

MPI task timing breakdown:
Section |  min time  |  avg time  |  max time  |%varavg| %total
---------------------------------------------------------------
Pair    | 57.521     | 57.521     | 57.521     |   0.0 | 22.88
Bond    | 3.9425     | 3.9425     | 3.9425     |   0.0 |  1.57
Neigh   | 180.15     | 180.15     | 180.15     |   0.0 | 71.65
Comm    | 0.06136    | 0.06136    | 0.06136    |   0.0 |  0.02
Output  | 0.58632    | 0.58632    | 0.58632    |   0.0 |  0.23
Modify  | 8.5753     | 8.5753     | 8.5753     |   0.0 |  3.41
Other   |            | 0.587      |            |       |  0.23

Nlocal:            793 ave         793 max         793 min
Histogram: 1 0 0 0 0 0 0 0 0 0
Nghost:              0 ave           0 max           0 min
Histogram: 1 0 0 0 0 0 0 0 0 0
Neighs:         147449 ave      147449 max      147449 min
Histogram: 1 0 0 0 0 0 0 0 0 0

Total # of neighbors = 147449
Ave neighs/atom = 185.93821
Ave special neighs/atom = 1.9974779
Neighbor list builds = 2025
Dangerous builds = 0

# This simulation is done
# Move onto the next one
clear
  using 2 OpenMP thread(s) per MPI task
package omp 0
using multi-threaded neighbor list subroutines
next f
jump SELF

###
# Reference paper:
# K. Kremer and G. S. Grest
# Dynamics of entangled linear polymer melts: A molecular-dynamics simulation
# J Chem Phys 92, 5057 (1990)

##################################
# MIHIR: for branched polymers
# LJ minimum first to expand and explore, then collapse
###

###
# Looping through the various N7B4 polymers to simulate,
# define variables to switch through
variable f index bb72nuc7bl9bn4d30tot200V2 bb109nuc7bl13bn4d30tot300V2 bb145nuc7bl18bn4d30tot400V2 bb181nuc7bl22bn4d30tot500V2 bb218nuc7bl27bn4d30tot600V2 bb254nuc7bl31bn4d30tot700V2 bb290nuc7bl36bn4d30tot800V2 bb327nuc7bl40bn4d30tot900V2 bb363nuc7bl45bn4d30tot1000V2 bb400nuc7bl50bn4d30tot1100V2 bb436nuc7bl54bn4d30tot1200V2
# variable f index bb36nuc7bl4bn4d30tot100 bb72nuc7bl9bn4d30tot200 bb109nuc7bl13bn4d30tot300 bb145nuc7bl18bn4d30tot400 bb181nuc7bl22bn4d30tot500 bb218nuc7bl27bn4d30tot600 bb254nuc7bl31bn4d30tot700 bb290nuc7bl36bn4d30tot800 bb327nuc7bl40bn4d30tot900 bb363nuc7bl45bn4d30tot1000 bb400nuc7bl50bn4d30tot1100 bb436nuc7bl54bn4d30tot1200
# variable f index  bb36nuc7bl4bn4d30tot100V2
###


###
# Box and units  (use LJ units and periodic boundaries)
###

units lj
log N7B4/trial2/logs/$f.log
log N7B4/trial2/logs/bb327nuc7bl40bn4d30tot900V2.log
