#atom_style bond #no stiffness
atom_style angle #with stiffness

boundary        p p p
###
# Pair interactions require lists of neighbours to be calculated
###

#neighbor 0.3 bin
neighbor 4 bin

neigh_modify every 1 delay 1 check yes
atom_modify sort 0 0
### Generate RESTART file, SPECIAL format, not a .txt file ###
### Useful if simulation crashes ###

restart 1000000 N7B4/trial2/restarts/$f.restart
restart 1000000 N7B4/trial2/restarts/bb363nuc7bl45bn4d30tot1000V2.restart
#############################



### READ "start" data file ###

read_data N7B4/trial2/dats2/$f.dat
read_data N7B4/trial2/dats2/bb363nuc7bl45bn4d30tot1000V2.dat
Reading data file ...
  orthogonal box = (-1000 -1000 -1000) to (1000 1000 1000)
  1 by 1 by 1 MPI processor grid
  reading atoms ...
  991 atoms
  scanning bonds ...
  3 = max bonds/atom
  scanning angles ...
  6 = max angles/atom
  reading bonds ...
  990 bonds
  reading angles ...
  1010 angles
Finding 1-2 1-3 1-4 neighbors ...
  special bond factors lj:    0        0        0       
  special bond factors coul:  0        0        0       
     4 = max # of 1-2 neighbors
     4 = max # of 1-3 neighbors
     8 = max # of 1-4 neighbors
    12 = max # of special neighbors
  special bonds CPU = 0.002 seconds
  read_data CPU = 0.153 seconds

######################

### READ "REstart" data file ###

######################



###
# Define groups (atom type 1 is group 'all')
###
group all type 1
991 atoms in group all


###
# Dump configs - "simple dumpings"
###

###
# Dump configs + box coords
###

dump   1   all   custom   1000  N7B4/trial2/trjs/$f.lammpstrj  id  x y z  ix iy iz
dump   1   all   custom   1000  N7B4/trial2/trjs/bb363nuc7bl45bn4d30tot1000V2.lammpstrj  id  x y z  ix iy iz
dump_modify   1   format line "%d %.5f %.5f %.5f %d %d %d"

########################################################################


###################################################################
# Stiffness term
#
# E = K * (1+cos(theta)), K>0
#
angle_style   cosine
#change this coefficient to change stiffness (e.g. 1,5,10)
angle_coeff   1 1.0
###################################################################

###################################################################
# Pair interaction between non-bonded atoms
#
#  Lennard-Jones 12-6 potential with cutoff:
#  potential E=4epsilon[ (sigma/r)^12 - (sigma/r)^6]  for r<r_cut
#
#  1.12246 = 2^(1/6) is the minimum of the potential


pair_style      lj/cut 1.12246152962189
#pair_style      lj/cut 3

#
#  pair_modify shift yes adds a constant to the potential such

#  that E(r_cut)=0. Forces remains unchanged.
#

pair_modify     shift yes

#
#  pair_coeff for lj/cut, specify 4:
#    * atom type interacting with
#    * atom type
#    * epsilon (energy units)
#    * sigma (distance units)
#

pair_coeff      1 1 1.0 1.0
###################################################################

###################################################################
# Pair interaction between non-bonded atoms
#
#  soft potential, for PUSHING apart overlapping atoms
#  potential E=A*(1 + cos(pi*r/r_c))
#
#  1.12246 = 2^(1/6) is the cut-off r_c

#pair_style     soft 1.12246152962189

#
#  pair_coeff for soft, specify 3:
#    * atom type interacting with
#    * atom type
#    * A
#
#

#pair_coeff      1 1 100.0
###################################################################

###################################################################
# Pair interaction between bonded atoms
#
# Fene potential + Lennard Jones 12-6:

#
#  E= - 0.5 K R0^2 ln[ 1- (r/R0)^2]
#     + 4epsilon[ (sigma/r)^12 - (sigma/r)^6] + epsilon
#

bond_style   fene


#
# For style fene, specify:
#   * bond type
#   * K (energy/distance^2)
#   * R0 (distance)
#   * epsilon (energy)  (LJ component)
#   * sigma (distance)  (LJ component)
#


special_bonds fene #<=== I M P O R T A N T (new command)
Finding 1-2 1-3 1-4 neighbors ...
  special bond factors lj:    0        1        1       
  special bond factors coul:  0        1        1       
     4 = max # of 1-2 neighbors
    12 = max # of special neighbors
  special bonds CPU = 0.000 seconds

bond_coeff   1   30   2   1.0   1.0


###################################################

###################################################################
# Pair interaction between bonded atoms
#
# Harmonic potential:
#
#  E= K * (R-R0)^2
#

#bond_style   harmonic

#
# For style harmonic, specify:
#   * bond type
#   * K (energy/distance^2)
#   * R0 (distance)
#

#bond_coeff   1   60.0   1.0
#bond_coeff   2   harmonic 0.1   1.0

###################################################
compute 1 all gyration
variable rog equal c_1
#compute 2 all coord/atom cutoff 1.1

#dump 2 all custom 10000 contact_number.dump id c_2


###
# Set up fixes
###
thermo_style   custom   step  temp enthalpy c_1
fix 1 all nve   ###NVE ensemble

fix 2 all   langevin   1.0 1.0 1.0  778655   ###Langevin integrator Tstart Tstop 1/friction rndseed


##### Sample thermodynamic info  (temperature, energy, pressure, etc.) #####
thermo 1000









############################################################################

###
# set timestep of integrator

timestep 0.01

###
# run integration for a number of steps
###
#run 0
#variable r equal c_1
#if "$r < 63.1" then "quit 1"

# lj potential minimum, cause molecule to explore
run 100000
Generated 0 of 0 mixed pair_coeff terms from geometric mixing rule
Last active /omp style is angle_style cosine/omp
Neighbor list info ...
  update: every = 1 steps, delay = 1 steps, check = yes
  max neighbors/atom: 2000, page size: 100000
  master list distance cutoff = 5.1224615
  ghost atom cutoff = 5.1224615
  binsize = 2.5612308, bins = 781 781 781
  1 neighbor lists, perpetual/occasional/extra = 1 0 0
  (1) pair lj/cut/omp, perpetual
      attributes: half, newton on, omp
      pair build: half/bin/newton/omp
      stencil: half/bin/3d
      bin: standard
WARNING: Communication cutoff 5.12246152962189 is shorter than a bond length based estimate of 5.455. This may lead to errors. (src/comm.cpp:723)
Per MPI rank memory allocation (min/avg/max) = 1862 | 1862 | 1862 Mbytes
   Step          Temp         Enthalpy         c_1      
         0   0              13.279666      58.141972    
      1000   0.9764527      18.939741      57.233978    
      2000   0.96181824     19.346155      56.295765    
      3000   1.0255841      19.673359      55.714314    
      4000   0.97795055     19.63557       55.072052    
      5000   1.0398528      19.678592      54.564816    
      6000   0.95408874     19.876675      54.055699    
      7000   1.0145687      19.958728      53.688071    
      8000   0.97799504     19.898703      53.237767    
      9000   1.0056266      20.53543       52.767239    
     10000   1.0116545      19.941236      52.763057    
     11000   1.032699       20.191299      52.437379    
     12000   1.0025247      20.625574      51.958203    
     13000   0.99803712     20.069685      51.526778    
     14000   1.0179525      20.606518      51.304204    
     15000   0.97023249     20.298926      51.267993    
     16000   1.0169163      20.928189      50.970937    
     17000   1.0023606      20.573507      50.768388    
     18000   0.98501665     20.365674      50.844532    
     19000   0.97766938     20.098477      50.680389    
     20000   0.99692045     20.398956      50.680277    
     21000   0.96449347     20.830925      50.665974    
     22000   1.0203059      20.369909      50.536072    
     23000   0.98670724     20.531277      50.18641     
     24000   1.0377266      21.264969      49.993292    
     25000   1.0222804      20.306803      49.910248    
     26000   0.99714533     20.247865      49.796054    
     27000   1.0106389      20.187193      49.848339    
     28000   1.0140186      20.07045       49.67491     
     29000   0.99826944     20.35426       49.593199    
     30000   0.98973557     20.34802       49.72962     
     31000   0.9798573      19.991005      49.361598    
     32000   0.99687591     20.309125      49.175159    
     33000   0.97723521     20.516213      49.102421    
     34000   0.99077139     20.393118      48.945592    
     35000   1.0079242      20.455593      48.805262    
     36000   1.043148       20.698625      48.610547    
     37000   1.0353443      20.651386      48.755871    
     38000   1.0354068      20.613781      48.77616     
     39000   1.0085366      20.365634      48.554599    
     40000   0.96720384     20.451872      48.518339    
     41000   1.0119796      20.590833      48.647173    
     42000   0.99107133     20.151214      48.333679    
     43000   0.97408369     21.095539      48.030815    
     44000   0.98916002     21.053072      47.967817    
     45000   1.0277136      20.139745      47.920753    
     46000   0.97933886     20.481556      47.846047    
     47000   0.98663194     20.668807      47.85155     
     48000   1.0093364      20.577866      47.824522    
     49000   1.0335501      20.818229      47.657709    
     50000   1.0684599      20.989834      47.624684    
     51000   1.0221173      20.090096      47.514825    
     52000   1.0044325      20.34467       47.181158    
     53000   0.98171672     20.794847      47.02888     
     54000   0.9940632      20.480111      47.080039    
     55000   0.9695036      20.540546      47.001394    
     56000   1.0204081      19.876499      46.946433    
     57000   0.99875053     20.277166      46.984306    
     58000   1.0134969      20.716336      47.169587    
     59000   1.0140482      20.400891      47.237042    
     60000   1.0294528      20.734819      47.066848    
     61000   1.0142796      20.902036      46.979345    
     62000   1.0086485      20.420514      46.90166     
     63000   1.0024235      20.341377      46.742729    
     64000   1.0250333      20.608035      46.801464    
     65000   1.0398241      20.698703      46.623254    
     66000   1.0114661      20.17455       46.361016    
     67000   1.0513592      20.144601      46.420606    
     68000   0.97786632     20.155852      46.635954    
     69000   1.0103234      20.076659      46.564572    
     70000   0.99897383     20.718705      46.5205      
     71000   1.0103804      20.21911       46.289329    
     72000   1.0093709      20.701135      46.173834    
     73000   1.0072347      20.32157       46.104666    
     74000   1.0336535      20.723798      45.78721     
     75000   1.0114209      20.849524      45.740027    
     76000   0.990843       20.656492      45.573832    
     77000   0.98999354     20.07934       45.407568    
     78000   1.057242       20.958939      45.334341    
     79000   0.99348329     20.435928      45.188562    
     80000   0.9502892      20.107942      45.221719    
     81000   1.0013481      20.58496       45.130166    
     82000   1.0261591      20.488356      45.347821    
     83000   1.0071317      20.580173      45.141835    
     84000   1.0172111      20.546085      45.002698    
     85000   1.0042607      20.030589      45.0668      
     86000   0.99879855     20.418151      45.056925    
     87000   1.0707398      20.453053      45.34434     
     88000   1.0230208      20.68702       45.147472    
     89000   0.9990592      20.819495      45.164751    
     90000   1.0157139      20.829161      45.212566    
     91000   0.98298818     20.659521      44.932485    
     92000   0.97557771     19.859996      44.874947    
     93000   1.004462       20.587803      45.146118    
     94000   0.96278704     20.329821      45.060462    
     95000   1.0069797      20.534705      45.008347    
     96000   0.98037445     20.494089      45.001888    
     97000   0.98282502     20.251628      44.966825    
     98000   0.97583088     20.788107      45.030766    
     99000   1.0166811      20.786485      44.914122    
    100000   1.0063488      20.447397      44.820297    
Loop time of 271.04 on 2 procs for 100000 steps with 991 atoms

Performance: 318772.659 tau/day, 368.950 timesteps/s
103.4% CPU use with 1 MPI tasks x 2 OpenMP threads

MPI task timing breakdown:
Section |  min time  |  avg time  |  max time  |%varavg| %total
---------------------------------------------------------------
Pair    | 1.3021     | 1.3021     | 1.3021     |   0.0 |  0.48
Bond    | 1.8239     | 1.8239     | 1.8239     |   0.0 |  0.67
Neigh   | 263.32     | 263.32     | 263.32     |   0.0 | 97.15
Comm    | 0.028749   | 0.028749   | 0.028749   |   0.0 |  0.01
Output  | 0.26178    | 0.26178    | 0.26178    |   0.0 |  0.10
Modify  | 4.0373     | 4.0373     | 4.0373     |   0.0 |  1.49
Other   |            | 0.2626     |            |       |  0.10

Nlocal:            991 ave         991 max         991 min
Histogram: 1 0 0 0 0 0 0 0 0 0
Nghost:              0 ave           0 max           0 min
Histogram: 1 0 0 0 0 0 0 0 0 0
Neighs:           9589 ave        9589 max        9589 min
Histogram: 1 0 0 0 0 0 0 0 0 0

Total # of neighbors = 9589
Ave neighs/atom = 9.6760848
Ave special neighs/atom = 1.9979818
Neighbor list builds = 1196
Dangerous builds = 0

# Replace lj potential, now collapse
pair_style      lj/cut 3

# Cutoff simul when gyration under 7
# Variable created with equal requires v_ + 'name'
fix 3 all halt 1000 v_rog < 7

run 3000000
Generated 0 of 0 mixed pair_coeff terms from geometric mixing rule
Last active /omp style is angle_style cosine/omp
Per MPI rank memory allocation (min/avg/max) = 1862 | 1862 | 1862 Mbytes
   Step          Temp         Enthalpy         c_1      
    100000   1.0063488      19.54358       44.820297    
    101000   0.981933       19.657995      44.721546    
    102000   1.0256887      19.59503       44.498721    
    103000   1.0454203      19.747336      44.459201    
    104000   1.0723991      19.591565      44.218667    
    105000   1.0262786      19.310067      44.048568    
    106000   1.061965       18.828782      43.904465    
    107000   1.0279206      18.550819      43.69307     
    108000   0.96501054     18.861009      43.277537    
    109000   1.0016966      18.351392      43.152376    
    110000   0.96852346     18.484         43.03636     
    111000   1.0208952      18.635846      42.869536    
    112000   0.97703585     18.360891      42.684126    
    113000   0.97887093     18.381469      42.366995    
    114000   0.98349033     18.270745      42.22263     
    115000   1.0120361      18.596625      41.968807    
    116000   1.0487907      18.229185      41.726681    
    117000   0.98894254     17.980309      41.419649    
    118000   1.0240975      18.959285      41.099955    
    119000   1.0458695      17.511031      40.761415    
    120000   1.0039699      18.605382      40.60876     
    121000   0.96270203     17.952005      40.266252    
    122000   0.9898358      18.866123      40.276884    
    123000   1.0214868      18.117167      40.030638    
    124000   0.9358811      17.841723      40.001379    
    125000   0.99634745     17.690875      40.033858    
    126000   1.0050961      18.141219      40.085958    
    127000   1.031798       17.914271      39.97356     
    128000   0.98100993     18.486215      39.764787    
    129000   1.015025       17.68002       39.834308    
    130000   1.0228231      18.415068      39.536837    
    131000   1.0094831      17.832379      39.224908    
    132000   0.99203933     17.661822      39.07933     
    133000   0.97886454     17.991         39.270769    
    134000   1.0158064      17.341754      39.376863    
    135000   0.99200192     17.740259      39.298016    
    136000   0.99199238     18.081856      39.241674    
    137000   0.96767546     17.501066      39.336614    
    138000   0.99833117     18.447763      39.132496    
    139000   1.0096391      17.957985      38.771793    
    140000   1.0046389      17.658126      38.859584    
    141000   0.99631797     17.914949      38.773086    
    142000   1.07406        18.0794        38.730097    
    143000   0.93864211     17.553809      38.76028     
    144000   0.99006352     18.179561      38.690976    
    145000   1.0089473      18.25753       38.64514     
    146000   0.97917131     17.611422      38.220257    
    147000   0.99090324     17.808766      37.976968    
    148000   1.0507618      18.134085      37.972978    
    149000   1.0110157      17.908432      37.911696    
    150000   1.0013603      17.300825      37.814918    
    151000   1.0075841      17.920629      37.591705    
    152000   0.98936386     18.122935      37.604109    
    153000   0.9664759      18.113566      37.580932    
    154000   0.99086671     17.725424      37.441788    
    155000   0.98601911     18.298071      37.187368    
    156000   1.0079933      18.059741      37.279987    
    157000   0.98729898     18.068574      37.208443    
    158000   1.0947657      18.370331      36.933436    
    159000   1.0011705      17.935415      36.75985     
    160000   0.96926979     17.835715      36.739823    
    161000   0.99395375     17.95382       36.556978    
    162000   0.9631307      17.810735      36.35794     
    163000   0.95867971     18.257905      36.253631    
    164000   1.0223238      18.401913      36.297821    
    165000   1.0123682      18.002716      36.175644    
    166000   1.0001031      18.106577      36.131139    
    167000   0.94367263     17.911778      36.145327    
    168000   1.0431743      18.152183      36.352414    
    169000   1.0202193      18.418089      36.41369     
    170000   0.98835474     17.839759      36.29197     
    171000   1.0562438      17.975916      36.159343    
    172000   1.0226667      17.64514       36.10255     
    173000   0.99068689     18.016632      36.078622    
    174000   0.99667719     17.947648      35.958047    
    175000   0.98370751     18.190049      35.805975    
    176000   1.0329871      17.882081      35.726489    
    177000   1.0076028      17.626899      35.941028    
    178000   1.0123611      18.191188      35.870943    
    179000   1.0137347      17.394307      35.642356    
    180000   0.99138992     17.346549      35.437414    
    181000   0.9353814      17.363542      35.035616    
    182000   0.99435627     17.395574      34.987088    
    183000   0.98906135     18.03068       34.651829    
    184000   0.98843687     17.736911      34.502549    
    185000   1.017912       18.185051      34.164798    
    186000   0.98881138     17.986339      33.963903    
    187000   1.0314856      18.294463      33.774245    
    188000   1.014074       17.408643      33.754762    
    189000   0.9981777      17.881814      33.754326    
    190000   1.0013439      18.016255      33.754802    
    191000   0.95480893     17.725645      33.814295    
    192000   1.0194752      17.883635      33.762647    
    193000   0.93014589     18.163242      33.648488    
    194000   1.0239608      17.566348      33.396408    
    195000   0.99147922     18.06155       33.188489    
    196000   1.0361593      17.720778      33.246814    
    197000   0.98917653     17.839576      33.224261    
    198000   1.0230762      17.571431      33.042497    
    199000   1.0059069      18.20039       32.911646    
    200000   1.0321003      17.176003      33.028234    
    201000   1.0228562      17.864882      32.862003    
    202000   0.98997549     17.794907      32.895273    
    203000   0.99233726     17.691577      32.579606    
    204000   0.98443347     17.416159      32.507223    
    205000   1.0162728      18.48799       32.490092    
    206000   1.0021197      18.410094      32.286212    
    207000   1.032734       17.6229        32.286825    
    208000   1.0488324      17.609186      32.315678    
    209000   1.0122861      17.96358       32.213807    
    210000   0.99248287     18.030227      32.226938    
    211000   1.0033729      18.280524      32.207912    
    212000   0.95246674     17.509247      32.090206    
    213000   0.99679821     17.831826      32.165419    
    214000   1.0349201      17.516777      32.248318    
    215000   0.990799       18.128684      32.284994    
    216000   0.96380606     17.633488      32.463002    
    217000   0.98810453     18.040756      32.430597    
    218000   0.98265565     17.90853       32.419736    
    219000   1.012629       17.567438      32.212828    
    220000   1.0008558      17.990785      32.082941    
    221000   0.94719184     17.288303      32.198474    
    222000   1.0253122      17.699493      32.148028    
    223000   1.0054009      18.084476      31.970613    
    224000   0.99077184     16.948549      31.734807    
    225000   1.052843       18.139093      31.476879    
    226000   0.99574805     18.071984      31.56034     
    227000   1.0026909      17.694221      31.167973    
    228000   1.0019733      17.548523      31.039342    
    229000   1.038891       17.824181      30.746364    
    230000   0.98867456     17.306101      30.422567    
    231000   0.99635461     17.822113      30.14142     
    232000   0.99816813     17.54315       29.898343    
    233000   1.0154751      18.126215      29.59959     
    234000   1.005059       17.530816      29.562494    
    235000   1.0078592      17.764636      29.453299    
    236000   1.0222823      17.407056      29.506518    
    237000   1.0264816      17.974526      29.639136    
    238000   0.98061534     17.457342      29.649582    
    239000   0.97274189     17.423189      29.665498    
    240000   0.97067082     17.732385      29.541953    
    241000   1.0118494      17.362785      29.525296    
    242000   0.96755785     17.531625      29.504847    
    243000   1.0111913      17.663817      29.371759    
    244000   1.0011669      17.594636      29.310371    
    245000   1.0177183      17.793581      29.207467    
    246000   1.0193514      17.454316      28.972495    
    247000   0.99652652     16.846697      29.029454    
    248000   1.0435194      17.773019      29.154706    
    249000   1.0392144      17.328331      29.098506    
    250000   0.94989524     17.177326      29.062949    
    251000   1.0048946      17.646133      28.818439    
    252000   0.96201246     17.342033      28.889561    
    253000   0.95984554     17.857502      28.68949     
    254000   1.04639        17.699614      28.519219    
    255000   0.98480207     17.030728      28.378439    
    256000   0.99877731     17.510318      28.319842    
    257000   0.95087601     17.665201      28.368599    
    258000   0.98625147     17.139106      28.259847    
    259000   1.0314532      17.255226      28.071183    
    260000   0.97639122     17.09302       28.052084    
    261000   0.95887847     17.330026      28.037645    
    262000   0.97919079     16.990409      27.940725    
    263000   1.0006619      17.216864      27.762287    
    264000   0.9795096      17.649078      27.706087    
    265000   1.0054899      17.19748       27.672797    
    266000   0.99803876     17.404157      27.506928    
    267000   0.99123822     17.132484      27.303374    
    268000   1.0579283      18.038317      27.305336    
    269000   0.95935672     17.256111      27.269992    
    270000   1.0006727      17.400873      27.237422    
    271000   0.99162157     17.590478      27.066256    
    272000   0.99112231     17.19743       27.017137    
    273000   1.0140978      17.151961      27.008       
    274000   1.0196577      16.893337      26.824432    
    275000   0.97797493     17.41815       26.60243     
    276000   0.99182342     17.913798      26.773835    
    277000   0.99232618     17.273467      26.653085    
    278000   0.98770051     17.083873      26.654867    
    279000   0.97891288     17.205827      26.691631    
    280000   1.0623867      17.710688      26.535657    
    281000   1.066642       17.57497       26.434538    
    282000   1.0111101      17.58936       26.546087    
    283000   1.0316209      17.800517      26.600957    
    284000   0.98373474     17.262649      26.458103    
    285000   0.97248494     17.364599      26.389152    
    286000   0.97669938     17.517987      26.412506    
    287000   0.99409629     17.217491      26.022677    
    288000   1.0341994      17.255071      25.959453    
    289000   1.0302648      17.268398      25.727572    
    290000   1.0335585      17.914307      25.635134    
    291000   0.98035613     17.065422      25.668948    
    292000   0.9912122      17.355536      25.6234      
    293000   1.019154       17.112807      25.571659    
    294000   0.97812789     17.453395      25.499965    
    295000   1.0290477      17.724712      25.145093    
    296000   0.97556821     16.720612      24.981391    
    297000   1.0162412      17.86445       24.793249    
    298000   1.0269427      17.998555      24.832792    
    299000   1.0272083      17.10566       24.66302     
    300000   1.0048938      17.176533      24.541812    
    301000   0.9989132      17.161418      24.443484    
    302000   0.99067988     17.481984      24.515794    
    303000   0.99869906     16.856643      24.412866    
    304000   1.0037508      17.101038      24.427268    
    305000   1.0160675      17.713352      24.564213    
    306000   1.0075726      17.643255      24.660655    
    307000   1.0122354      17.294178      24.662634    
    308000   0.98132805     17.516471      24.963134    
    309000   0.99955416     17.497507      24.783179    
    310000   0.99869993     17.085551      24.852847    
    311000   1.0139251      17.331401      24.877039    
    312000   0.9547973      17.024514      24.787136    
    313000   0.99047473     17.03986       24.819647    
    314000   0.9906483      17.423079      24.735685    
    315000   0.96350716     17.455692      24.366013    
    316000   0.98294866     16.962884      24.477498    
    317000   1.0513757      17.336947      24.502972    
    318000   1.0643471      17.503632      24.236233    
    319000   0.98796283     18.047507      23.947967    
    320000   0.99899977     17.214443      24.079905    
    321000   0.95914089     17.598955      24.276896    
    322000   1.0113217      18.087096      24.187774    
    323000   1.0700807      17.626636      24.142985    
    324000   1.0183977      17.370109      23.924298    
    325000   0.99143714     16.891371      23.893108    
    326000   0.98327154     17.166166      23.726376    
    327000   1.0258724      17.947089      23.385021    
    328000   1.0215881      17.637351      23.177089    
    329000   0.99953709     17.171739      22.923082    
    330000   0.99964727     17.205091      22.931555    
    331000   0.99346195     16.964658      22.817961    
    332000   1.0105521      16.89122       22.544112    
    333000   1.0098454      18.328948      22.465605    
    334000   0.98786074     17.76291       22.280266    
    335000   1.0003053      17.54105       22.315978    
    336000   0.97572409     17.413692      22.238437    
    337000   1.0268426      17.050949      22.21484     
    338000   0.93974934     17.746417      21.976959    
    339000   0.98841776     16.973758      21.659186    
    340000   0.98781324     17.221892      21.308022    
    341000   1.0243392      17.776826      21.253314    
    342000   0.99641018     17.95612       21.246054    
    343000   0.98414865     17.702986      21.142386    
    344000   0.97372968     17.203628      21.073774    
    345000   0.96964667     17.274363      21.121968    
    346000   1.0062748      17.63443       21.139797    
    347000   0.95564088     17.310858      21.094998    
    348000   1.0049868      16.815147      21.123189    
    349000   0.9858173      16.780155      20.884314    
    350000   0.98449901     17.30482       20.711104    
    351000   1.0097639      17.682587      20.754458    
    352000   1.0578502      17.08085       20.63744     
    353000   0.97351546     16.777985      20.560343    
    354000   0.99694396     16.956138      20.599104    
    355000   0.98740372     17.773991      20.691556    
    356000   1.0472582      17.004585      20.415028    
    357000   1.0354801      17.665864      20.420073    
    358000   0.9872161      17.230587      20.300743    
    359000   1.0115374      17.217114      20.008265    
    360000   1.0698984      17.946564      20.107663    
    361000   0.99737418     16.912565      19.964424    
    362000   0.97916832     17.23438       19.672449    
    363000   0.98766907     17.00498       19.719395    
    364000   1.0130714      17.586142      19.620911    
    365000   1.0119684      16.529232      19.730609    
    366000   1.0034773      17.365387      19.625001    
    367000   0.97722418     17.449168      19.596088    
    368000   1.0459414      17.936521      19.605861    
    369000   1.0142211      17.732475      19.451704    
    370000   0.98418704     17.569486      19.606318    
    371000   1.0320983      17.183173      19.701617    
    372000   0.9834985      17.447967      19.487671    
    373000   1.0192621      17.367493      19.186274    
    374000   1.0089915      17.277611      19.080527    
    375000   1.0599844      17.790555      18.913596    
    376000   1.0269446      17.024577      18.843636    
    377000   1.0056866      18.091183      18.573724    
    378000   0.99346934     17.518362      18.395139    
    379000   1.0133842      17.481268      18.27914     
    380000   0.99016661     17.247937      18.356118    
    381000   0.97985074     17.049417      17.910176    
    382000   0.99668833     16.896165      17.839735    
    383000   0.9895423      17.735029      17.558003    
    384000   1.007459       17.196595      17.623634    
    385000   1.0424916      17.619355      17.558593    
    386000   0.96562533     17.658635      17.387776    
    387000   1.0313393      17.055804      17.214906    
    388000   0.98048596     16.675189      17.288113    
    389000   0.95232777     17.131291      17.170327    
    390000   0.991991       16.914025      17.192802    
    391000   0.98602508     17.924665      17.120048    
    392000   0.99263737     17.150931      17.107345    
    393000   1.0091815      17.509869      17.092117    
    394000   1.0001154      17.160355      17.365071    
    395000   1.0012199      17.412641      17.267914    
    396000   0.99276334     16.904507      17.183014    
    397000   0.97751668     17.431526      17.39986     
    398000   1.0035611      16.690954      17.314801    
    399000   1.0057291      17.348266      16.972698    
    400000   0.98189111     17.305825      16.891584    
    401000   0.97303403     17.148396      16.680406    
    402000   1.0165908      17.88713       16.449892    
    403000   1.0195532      17.322101      16.383392    
    404000   1.0529818      17.536136      16.351263    
    405000   1.0078559      17.192192      16.076561    
    406000   0.95773744     17.450839      16.161198    
    407000   1.0379613      17.597796      16.213191    
    408000   1.000116       17.140887      16.135391    
    409000   0.98796785     17.614395      16.018631    
    410000   0.99085257     17.214374      15.927078    
    411000   0.94106727     17.2579        15.717051    
    412000   1.0278189      17.636776      15.547635    
    413000   0.98647551     17.625921      15.626846    
    414000   0.98802122     17.359994      15.519048    
    415000   1.0076236      17.881006      15.323611    
    416000   0.97975235     17.259392      15.265194    
    417000   1.0204387      17.122061      15.054266    
    418000   0.98577378     17.285331      15.033922    
    419000   0.99200339     17.204099      15.110402    
    420000   1.0211604      17.567544      15.186643    
    421000   0.98037072     17.382962      15.138578    
    422000   1.0125439      17.035043      14.958592    
    423000   0.97350371     17.191997      14.744254    
    424000   0.96141794     16.848018      14.76237     
    425000   0.999496       17.60305       14.673124    
    426000   1.001078       16.609806      14.536243    
    427000   0.99177587     17.24251       14.582223    
    428000   1.0277456      17.837375      14.632186    
    429000   1.0005137      16.645795      14.59455     
    430000   0.96633001     16.787387      14.698155    
    431000   1.0233039      17.40912       14.644093    
    432000   1.0157751      17.622569      14.648012    
    433000   1.0133102      17.663868      14.348517    
    434000   0.99632678     17.583091      14.344018    
    435000   0.99603818     17.961518      14.17054     
    436000   0.94695828     16.838588      14.204496    
    437000   1.0012617      17.544262      14.260292    
    438000   1.0002         17.472597      14.234903    
    439000   0.97045265     16.904361      14.197015    
    440000   0.98851813     17.445297      14.114174    
    441000   1.0275485      17.494155      13.782094    
    442000   1.0209246      17.384928      13.695059    
    443000   0.97933819     17.219326      13.39693     
    444000   0.99591766     17.501143      13.172146    
    445000   1.0336694      16.75686       13.154052    
    446000   1.0269327      17.080315      13.118284    
    447000   0.98890588     17.072626      12.986213    
    448000   0.9823841      17.260638      12.645687    
    449000   1.0397416      17.382131      12.69485     
    450000   1.0210613      17.262881      12.635195    
    451000   0.97165143     16.953734      12.29956     
    452000   0.9840543      17.409666      12.126425    
    453000   0.95442237     17.728134      11.939904    
    454000   1.0411808      17.328002      11.83845     
    455000   0.9689774      16.81675       11.877844    
    456000   1.0063226      17.576733      11.957085    
    457000   1.0515046      17.070535      11.708823    
    458000   0.95134097     17.562186      11.66185     
    459000   0.9644395      17.008823      11.638591    
    460000   1.0022814      17.655691      11.473942    
    461000   0.99265707     17.038395      11.501311    
    462000   1.0186835      17.799979      11.299117    
    463000   1.0331668      17.383508      11.246342    
    464000   1.0373302      17.64512       11.218924    
    465000   1.0028997      16.894177      10.979549    
    466000   0.98604812     17.199819      10.72575     
    467000   0.9930202      16.575327      10.786425    
    468000   0.96930569     16.525459      10.933687    
    469000   0.99953377     16.659935      10.715029    
    470000   1.0087642      17.201114      10.645965    
    471000   0.99096097     16.689729      10.698623    
    472000   0.95043445     17.072566      10.667771    
    473000   1.0303247      17.287629      10.48474     
    474000   1.0009724      17.606816      10.573058    
    475000   0.9506631      17.209009      10.47604     
    476000   0.97785356     16.554717      10.393047    
    477000   0.98733179     17.549584      10.514552    
    478000   1.0461942      16.842676      10.565446    
    479000   0.99681152     17.122168      10.631721    
    480000   0.94781686     17.1916        10.453495    
    481000   0.98487951     17.483286      10.38408     
    482000   1.0223146      17.253313      10.501102    
    483000   0.99981966     17.054109      10.493719    
    484000   0.95909941     17.100271      10.37717     
    485000   1.0343328      17.228454      10.481133    
    486000   1.0356671      17.353236      10.490543    
    487000   0.98556771     16.732369      10.362285    
    488000   1.0001527      17.248402      10.185281    
    489000   0.9804427      16.986159      10.21121     
    490000   1.0352807      17.295143      9.9347793    
    491000   0.95798836     16.942056      9.5893089    
    492000   0.94113734     16.667808      9.6033888    
    493000   0.97653397     17.080652      9.4634044    
    494000   0.97121808     16.955454      9.4707798    
    495000   0.97954023     17.086222      9.3070273    
    496000   0.97796742     17.435916      9.0622909    
    497000   1.0847613      17.446774      9.1537417    
    498000   1.0134872      17.193825      9.2108825    
    499000   1.0062644      17.369955      9.2510625    
    500000   0.99640752     17.04968       9.1253982    
    501000   0.98048291     17.061934      9.020556     
    502000   0.96201432     17.02794       8.9148566    
    503000   0.97747827     17.532309      8.766614     
    504000   1.0010777      17.224413      8.7934558    
    505000   1.0193021      17.379596      8.9830542    
    506000   0.98295192     17.504798      9.0019042    
    507000   1.0374193      17.311889      9.0433731    
    508000   1.0278015      17.572783      8.9846217    
    509000   1.0317852      17.125768      9.0596542    
    510000   0.99275737     17.216454      9.0796075    
    511000   1.000317       17.237543      8.9483785    
    512000   1.0319353      16.9551        8.8777975    
    513000   1.0098625      16.796465      8.8571554    
    514000   0.98588075     17.220746      8.7499443    
    515000   0.99877102     17.564938      8.6884818    
    516000   0.96642538     16.814049      8.4990877    
    517000   0.95506623     17.306048      8.4713906    
    518000   1.0054047      16.161859      8.5148604    
    519000   0.98335324     17.10512       8.4870262    
    520000   1.0001738      17.187971      8.4639306    
    521000   1.0126354      17.379788      8.4825848    
    522000   1.0280565      17.185728      8.3446571    
    523000   1.0203341      16.842231      8.263895     
    524000   1.041772       16.610825      8.2743502    
    525000   1.0070383      16.950589      8.4432087    
    526000   0.95706804     17.528597      8.1900169    
    527000   1.0252847      16.898056      8.2052615    
    528000   1.0206811      17.21525       8.3641729    
    529000   1.0315157      17.774973      8.4744502    
    530000   0.98021        17.225053      8.3802609    
    531000   1.0391861      17.697073      8.3877167    
    532000   0.93933073     16.841001      8.3960995    
    533000   0.99435678     17.091377      8.3600176    
    534000   1.0616226      17.188997      8.2505546    
    535000   1.0814417      17.41516       8.2791096    
    536000   0.98845629     17.639013      8.1548633    
    537000   0.97452213     17.336453      8.1610809    
    538000   1.0147872      17.212962      8.09196      
    539000   1.0432726      17.266275      8.2398987    
    540000   0.99296567     16.925632      8.1269855    
    541000   1.0293795      17.045005      8.0480452    
    542000   0.99363251     17.386738      7.8496056    
    543000   0.97597182     16.835312      7.75794      
    544000   1.0254403      17.28509       7.365053     
    545000   0.99539974     16.851366      7.149474     
    546000   1.0113601      17.234059      7.1179616    
Fix halt condition for fix-id 3 met on step 547000 with value 6.9242628954237055 (src/fix_halt.cpp:237)
    547000   1.0090301      17.133645      6.9242629    
Loop time of 517.006 on 2 procs for 447000 steps with 991 atoms

Performance: 747008.213 tau/day, 864.593 timesteps/s
135.8% CPU use with 1 MPI tasks x 2 OpenMP threads

MPI task timing breakdown:
Section |  min time  |  avg time  |  max time  |%varavg| %total
---------------------------------------------------------------
Pair    | 149.6      | 149.6      | 149.6      |   0.0 | 28.94
Bond    | 8.6586     | 8.6586     | 8.6586     |   0.0 |  1.67
Neigh   | 337.22     | 337.22     | 337.22     |   0.0 | 65.23
Comm    | 0.13725    | 0.13725    | 0.13725    |   0.0 |  0.03
Output  | 1.1828     | 1.1828     | 1.1828     |   0.0 |  0.23
Modify  | 18.912     | 18.912     | 18.912     |   0.0 |  3.66
Other   |            | 1.296      |            |       |  0.25

Nlocal:            991 ave         991 max         991 min
Histogram: 1 0 0 0 0 0 0 0 0 0
Nghost:              0 ave           0 max           0 min
Histogram: 1 0 0 0 0 0 0 0 0 0
Neighs:         208528 ave      208528 max      208528 min
Histogram: 1 0 0 0 0 0 0 0 0 0

Total # of neighbors = 208528
Ave neighs/atom = 210.4218
Ave special neighs/atom = 1.9979818
Neighbor list builds = 3684
Dangerous builds = 0

# This simulation is done
# Move onto the next one
clear
  using 2 OpenMP thread(s) per MPI task
package omp 0
using multi-threaded neighbor list subroutines
next f
jump SELF

###
# Reference paper:
# K. Kremer and G. S. Grest
# Dynamics of entangled linear polymer melts: A molecular-dynamics simulation
# J Chem Phys 92, 5057 (1990)

##################################
# MIHIR: for branched polymers
# LJ minimum first to expand and explore, then collapse
###

###
# Looping through the various N7B4 polymers to simulate,
# define variables to switch through
variable f index bb72nuc7bl9bn4d30tot200V2 bb109nuc7bl13bn4d30tot300V2 bb145nuc7bl18bn4d30tot400V2 bb181nuc7bl22bn4d30tot500V2 bb218nuc7bl27bn4d30tot600V2 bb254nuc7bl31bn4d30tot700V2 bb290nuc7bl36bn4d30tot800V2 bb327nuc7bl40bn4d30tot900V2 bb363nuc7bl45bn4d30tot1000V2 bb400nuc7bl50bn4d30tot1100V2 bb436nuc7bl54bn4d30tot1200V2
# variable f index bb36nuc7bl4bn4d30tot100 bb72nuc7bl9bn4d30tot200 bb109nuc7bl13bn4d30tot300 bb145nuc7bl18bn4d30tot400 bb181nuc7bl22bn4d30tot500 bb218nuc7bl27bn4d30tot600 bb254nuc7bl31bn4d30tot700 bb290nuc7bl36bn4d30tot800 bb327nuc7bl40bn4d30tot900 bb363nuc7bl45bn4d30tot1000 bb400nuc7bl50bn4d30tot1100 bb436nuc7bl54bn4d30tot1200
# variable f index  bb36nuc7bl4bn4d30tot100V2
###


###
# Box and units  (use LJ units and periodic boundaries)
###

units lj
log N7B4/trial2/logs/$f.log
log N7B4/trial2/logs/bb400nuc7bl50bn4d30tot1100V2.log
