#atom_style bond #no stiffness
atom_style angle #with stiffness

boundary        p p p
###
# Pair interactions require lists of neighbours to be calculated
###

#neighbor 0.3 bin
neighbor 4 bin

neigh_modify every 1 delay 1 check yes
atom_modify sort 0 0
### Generate RESTART file, SPECIAL format, not a .txt file ###
### Useful if simulation crashes ###

restart 1000000 N7B4/trial2/restarts/$f.restart
restart 1000000 N7B4/trial2/restarts/bb400nuc7bl50bn4d30tot1100V2.restart
#############################



### READ "start" data file ###

read_data N7B4/trial2/dats2/$f.dat
read_data N7B4/trial2/dats2/bb400nuc7bl50bn4d30tot1100V2.dat
Reading data file ...
  orthogonal box = (-1000 -1000 -1000) to (1000 1000 1000)
  1 by 1 by 1 MPI processor grid
  reading atoms ...
  1101 atoms
  scanning bonds ...
  3 = max bonds/atom
  scanning angles ...
  6 = max angles/atom
  reading bonds ...
  1100 bonds
  reading angles ...
  1120 angles
Finding 1-2 1-3 1-4 neighbors ...
  special bond factors lj:    0        0        0       
  special bond factors coul:  0        0        0       
     4 = max # of 1-2 neighbors
     4 = max # of 1-3 neighbors
     8 = max # of 1-4 neighbors
    12 = max # of special neighbors
  special bonds CPU = 0.002 seconds
  read_data CPU = 0.149 seconds

######################

### READ "REstart" data file ###

######################



###
# Define groups (atom type 1 is group 'all')
###
group all type 1
1101 atoms in group all


###
# Dump configs - "simple dumpings"
###

###
# Dump configs + box coords
###

dump   1   all   custom   1000  N7B4/trial2/trjs/$f.lammpstrj  id  x y z  ix iy iz
dump   1   all   custom   1000  N7B4/trial2/trjs/bb400nuc7bl50bn4d30tot1100V2.lammpstrj  id  x y z  ix iy iz
dump_modify   1   format line "%d %.5f %.5f %.5f %d %d %d"

########################################################################


###################################################################
# Stiffness term
#
# E = K * (1+cos(theta)), K>0
#
angle_style   cosine
#change this coefficient to change stiffness (e.g. 1,5,10)
angle_coeff   1 1.0
###################################################################

###################################################################
# Pair interaction between non-bonded atoms
#
#  Lennard-Jones 12-6 potential with cutoff:
#  potential E=4epsilon[ (sigma/r)^12 - (sigma/r)^6]  for r<r_cut
#
#  1.12246 = 2^(1/6) is the minimum of the potential


pair_style      lj/cut 1.12246152962189
#pair_style      lj/cut 3

#
#  pair_modify shift yes adds a constant to the potential such

#  that E(r_cut)=0. Forces remains unchanged.
#

pair_modify     shift yes

#
#  pair_coeff for lj/cut, specify 4:
#    * atom type interacting with
#    * atom type
#    * epsilon (energy units)
#    * sigma (distance units)
#

pair_coeff      1 1 1.0 1.0
###################################################################

###################################################################
# Pair interaction between non-bonded atoms
#
#  soft potential, for PUSHING apart overlapping atoms
#  potential E=A*(1 + cos(pi*r/r_c))
#
#  1.12246 = 2^(1/6) is the cut-off r_c

#pair_style     soft 1.12246152962189

#
#  pair_coeff for soft, specify 3:
#    * atom type interacting with
#    * atom type
#    * A
#
#

#pair_coeff      1 1 100.0
###################################################################

###################################################################
# Pair interaction between bonded atoms
#
# Fene potential + Lennard Jones 12-6:

#
#  E= - 0.5 K R0^2 ln[ 1- (r/R0)^2]
#     + 4epsilon[ (sigma/r)^12 - (sigma/r)^6] + epsilon
#

bond_style   fene


#
# For style fene, specify:
#   * bond type
#   * K (energy/distance^2)
#   * R0 (distance)
#   * epsilon (energy)  (LJ component)
#   * sigma (distance)  (LJ component)
#


special_bonds fene #<=== I M P O R T A N T (new command)
Finding 1-2 1-3 1-4 neighbors ...
  special bond factors lj:    0        1        1       
  special bond factors coul:  0        1        1       
     4 = max # of 1-2 neighbors
    12 = max # of special neighbors
  special bonds CPU = 0.000 seconds

bond_coeff   1   30   2   1.0   1.0


###################################################

###################################################################
# Pair interaction between bonded atoms
#
# Harmonic potential:
#
#  E= K * (R-R0)^2
#

#bond_style   harmonic

#
# For style harmonic, specify:
#   * bond type
#   * K (energy/distance^2)
#   * R0 (distance)
#

#bond_coeff   1   60.0   1.0
#bond_coeff   2   harmonic 0.1   1.0

###################################################
compute 1 all gyration
variable rog equal c_1
#compute 2 all coord/atom cutoff 1.1

#dump 2 all custom 10000 contact_number.dump id c_2


###
# Set up fixes
###
thermo_style   custom   step  temp enthalpy c_1
fix 1 all nve   ###NVE ensemble

fix 2 all   langevin   1.0 1.0 1.0  778655   ###Langevin integrator Tstart Tstop 1/friction rndseed


##### Sample thermodynamic info  (temperature, energy, pressure, etc.) #####
thermo 1000









############################################################################

###
# set timestep of integrator

timestep 0.01

###
# run integration for a number of steps
###
#run 0
#variable r equal c_1
#if "$r < 63.1" then "quit 1"

# lj potential minimum, cause molecule to explore
run 100000
Generated 0 of 0 mixed pair_coeff terms from geometric mixing rule
Last active /omp style is angle_style cosine/omp
Neighbor list info ...
  update: every = 1 steps, delay = 1 steps, check = yes
  max neighbors/atom: 2000, page size: 100000
  master list distance cutoff = 5.1224615
  ghost atom cutoff = 5.1224615
  binsize = 2.5612308, bins = 781 781 781
  1 neighbor lists, perpetual/occasional/extra = 1 0 0
  (1) pair lj/cut/omp, perpetual
      attributes: half, newton on, omp
      pair build: half/bin/newton/omp
      stencil: half/bin/3d
      bin: standard
WARNING: Communication cutoff 5.12246152962189 is shorter than a bond length based estimate of 5.455. This may lead to errors. (src/comm.cpp:723)
Per MPI rank memory allocation (min/avg/max) = 1862 | 1862 | 1862 Mbytes
   Step          Temp         Enthalpy         c_1      
         0   0              13.262237      70.096529    
      1000   1.026827       18.69328       69.417033    
      2000   0.98763285     19.1614        68.596595    
      3000   1.0332511      19.553457      67.965414    
      4000   0.98222374     19.399056      67.49849     
      5000   1.0517592      19.25252       67.300806    
      6000   0.96129779     19.593661      66.803796    
      7000   0.99133826     19.403344      66.532629    
      8000   1.0215169      20.174046      66.399939    
      9000   1.0072969      20.252453      66.119258    
     10000   1.0042978      20.491674      66.069613    
     11000   1.0395074      19.932285      66.030605    
     12000   1.0421464      20.457246      65.810504    
     13000   0.97891674     19.657365      65.550138    
     14000   1.0086054      20.007822      65.434017    
     15000   0.95721054     20.126999      65.304772    
     16000   1.003442       20.069008      65.232099    
     17000   1.0078677      20.624813      65.252943    
     18000   1.0300437      20.574758      65.013394    
     19000   0.97015414     20.759918      64.962599    
     20000   0.99531824     20.413363      64.733154    
     21000   1.024694       20.182972      64.689771    
     22000   0.98072287     20.355334      64.45252     
     23000   0.98404417     20.695065      64.095595    
     24000   0.98129934     20.1354        63.867722    
     25000   0.98738317     20.368377      63.712939    
     26000   1.0168499      20.258278      63.696389    
     27000   1.0041482      20.452041      63.494184    
     28000   1.0314645      20.277264      63.32094     
     29000   0.98711469     20.372034      63.220877    
     30000   1.000713       20.357408      63.018705    
     31000   0.97303402     20.367798      62.922181    
     32000   0.97887018     20.311461      62.961626    
     33000   1.0249017      20.800611      62.923385    
     34000   1.0284571      20.163621      63.115089    
     35000   1.0430404      20.234632      63.073172    
     36000   1.0142808      20.699785      62.873042    
     37000   1.0425037      21.03362       62.604378    
     38000   1.0126268      20.344215      62.701854    
     39000   0.99792574     20.737236      62.50359     
     40000   1.0103256      20.25086       62.189157    
     41000   0.95136381     20.9092        62.121886    
     42000   1.0042579      21.060533      62.335052    
     43000   1.0119279      20.589882      62.349046    
     44000   1.0151918      20.582505      62.332876    
     45000   0.96756096     20.675587      62.138811    
     46000   1.0143538      20.643679      62.056758    
     47000   1.0242949      20.421902      62.06411     
     48000   0.96399709     20.516384      62.165823    
     49000   1.008615       20.24914       62.077657    
     50000   0.99304011     20.841103      61.927268    
     51000   1.0237105      20.782924      61.934423    
     52000   0.99929651     20.760684      61.98228     
     53000   1.03968        20.409794      62.013662    
     54000   0.99654252     20.334909      62.164053    
     55000   0.97331889     20.812477      61.897407    
     56000   1.0291285      20.741695      61.565353    
     57000   1.000664       20.563539      61.314095    
     58000   0.95498186     20.236799      61.086495    
     59000   1.0278698      20.289876      60.886071    
     60000   0.99965152     20.834368      60.846821    
     61000   0.99716064     20.204219      60.809664    
     62000   0.9967303      20.659426      60.724431    
     63000   1.0518129      20.74579       60.714424    
     64000   1.0200486      20.62485       60.457736    
     65000   1.0269541      20.117161      60.284086    
     66000   0.99781954     20.440408      60.29824     
     67000   0.996136       20.683286      60.296516    
     68000   1.0389016      20.906873      60.30756     
     69000   0.99587701     20.566877      60.102687    
     70000   1.0272861      20.694596      60.199739    
     71000   1.0030963      20.876288      60.102457    
     72000   0.98104984     20.290698      60.038033    
     73000   1.033123       21.04703       59.999544    
     74000   1.0616694      20.414861      60.096287    
     75000   1.0604815      20.245849      60.161937    
     76000   1.0034187      20.429586      60.251807    
     77000   1.0387965      20.445089      60.408657    
     78000   1.0179115      20.369831      60.352565    
     79000   0.97726565     20.434565      60.326653    
     80000   0.98787615     20.314362      60.265029    
     81000   1.012872       20.384331      60.371101    
     82000   0.99826668     20.612049      60.313697    
     83000   0.97105277     20.167369      60.358429    
     84000   0.98219354     20.276348      60.230971    
     85000   0.98126094     19.986222      60.246395    
     86000   0.96036452     20.38639       60.120546    
     87000   1.0110361      20.78613       60.323775    
     88000   1.0098557      20.184764      60.472823    
     89000   0.96492044     20.360146      60.588824    
     90000   1.0226237      20.369319      60.778251    
     91000   1.0027471      20.620734      60.879263    
     92000   0.99538996     20.745517      60.729966    
     93000   1.0164874      19.954464      60.582391    
     94000   1.0035794      20.60378       60.623578    
     95000   1.0186915      20.607036      60.44674     
     96000   0.99708688     20.356532      60.450151    
     97000   0.99978478     20.41429       60.314789    
     98000   0.95640677     20.432701      60.199921    
     99000   0.97285145     20.288057      60.512357    
    100000   0.98608007     20.099809      60.465398    
Loop time of 280.512 on 2 procs for 100000 steps with 1101 atoms

Performance: 308008.350 tau/day, 356.491 timesteps/s
103.5% CPU use with 1 MPI tasks x 2 OpenMP threads

MPI task timing breakdown:
Section |  min time  |  avg time  |  max time  |%varavg| %total
---------------------------------------------------------------
Pair    | 1.4168     | 1.4168     | 1.4168     |   0.0 |  0.51
Bond    | 2.0194     | 2.0194     | 2.0194     |   0.0 |  0.72
Neigh   | 272        | 272        | 272        |   0.0 | 96.96
Comm    | 0.028547   | 0.028547   | 0.028547   |   0.0 |  0.01
Output  | 0.29901    | 0.29901    | 0.29901    |   0.0 |  0.11
Modify  | 4.4625     | 4.4625     | 4.4625     |   0.0 |  1.59
Other   |            | 0.2883     |            |       |  0.10

Nlocal:           1101 ave        1101 max        1101 min
Histogram: 1 0 0 0 0 0 0 0 0 0
Nghost:              0 ave           0 max           0 min
Histogram: 1 0 0 0 0 0 0 0 0 0
Neighs:          11572 ave       11572 max       11572 min
Histogram: 1 0 0 0 0 0 0 0 0 0

Total # of neighbors = 11572
Ave neighs/atom = 10.510445
Ave special neighs/atom = 1.9981835
Neighbor list builds = 1217
Dangerous builds = 0

# Replace lj potential, now collapse
pair_style      lj/cut 3

# Cutoff simul when gyration under 7
# Variable created with equal requires v_ + 'name'
fix 3 all halt 1000 v_rog < 7

run 3000000
Generated 0 of 0 mixed pair_coeff terms from geometric mixing rule
Last active /omp style is angle_style cosine/omp
Per MPI rank memory allocation (min/avg/max) = 1862 | 1862 | 1862 Mbytes
   Step          Temp         Enthalpy         c_1      
    100000   0.98608007     19.165834      60.465398    
    101000   1.0376604      19.6055        60.474932    
    102000   1.0410881      19.629629      60.223636    
    103000   1.014701       18.742949      60.055915    
    104000   1.0495256      19.141906      59.805958    
    105000   1.0108543      18.670303      59.699976    
    106000   0.97266649     18.578528      59.596949    
    107000   0.96173267     18.137722      59.435297    
    108000   1.0423674      18.517326      59.507067    
    109000   1.0297925      18.349669      59.413518    
    110000   0.99165428     18.307981      59.291409    
    111000   1.0495353      18.16965       59.15623     
    112000   1.0267541      18.427683      58.844317    
    113000   1.0233555      18.699888      58.901323    
    114000   1.0457783      18.445517      58.822401    
    115000   1.0221486      17.673013      58.742488    
    116000   0.97995371     18.36191       58.668485    
    117000   1.0162852      17.72615       58.611337    
    118000   1.011552       18.820699      58.337928    
    119000   1.0108837      17.912936      57.885863    
    120000   1.048661       18.603992      57.621799    
    121000   1.0153458      18.599006      57.707001    
    122000   0.99865854     17.820512      57.590985    
    123000   0.97625028     17.842915      57.337181    
    124000   1.007979       17.945676      57.078221    
    125000   1.001089       18.226908      56.896423    
    126000   1.0136487      18.475774      56.737842    
    127000   1.0472807      18.076501      56.548404    
    128000   0.99932716     17.919662      56.523327    
    129000   0.99469783     18.167792      56.364567    
    130000   1.0133248      17.962954      56.423965    
    131000   1.0023417      18.03368       56.3289      
    132000   0.98311098     18.707914      56.161746    
    133000   1.0637073      18.424797      56.142522    
    134000   1.0110082      18.384381      55.917371    
    135000   1.0075507      18.541637      56.047962    
    136000   1.0338613      18.234452      56.06912     
    137000   0.99652277     18.544378      55.898997    
    138000   1.0054         18.163334      55.832802    
    139000   1.0083449      18.134214      55.719971    
    140000   1.0222787      17.93561       55.711241    
    141000   0.99100874     18.348322      55.502695    
    142000   0.99489293     18.582937      55.443897    
    143000   1.0049765      17.832269      55.231049    
    144000   0.99574877     17.980561      55.144255    
    145000   1.0256508      18.27992       54.907219    
    146000   1.0124832      18.245912      54.846012    
    147000   1.0261823      18.026598      54.703616    
    148000   1.0089387      17.94381       54.348169    
    149000   1.0163677      18.063785      54.217548    
    150000   1.0176253      18.757817      53.953191    
    151000   1.0073258      17.748312      53.813738    
    152000   0.9643225      17.938822      53.913796    
    153000   1.0354719      18.014263      53.776933    
    154000   0.98326478     17.516285      53.595838    
    155000   1.040889       18.057944      53.356264    
    156000   0.97002011     18.005847      53.08063     
    157000   0.99320409     18.386309      53.060127    
    158000   1.0126571      18.211076      53.04881     
    159000   1.0171817      17.675333      52.708728    
    160000   0.99275102     18.34718       52.51834     
    161000   0.97676675     17.717625      52.379637    
    162000   0.96374963     17.680312      52.217925    
    163000   1.0425014      18.057776      52.224131    
    164000   0.99604753     18.134991      52.322884    
    165000   1.0003513      17.492735      52.201368    
    166000   1.0089394      18.37424       52.372828    
    167000   0.98949831     18.102289      52.327538    
    168000   0.98145755     17.973085      52.293625    
    169000   1.0095621      18.415026      52.004789    
    170000   1.0152823      18.463058      52.011788    
    171000   1.0220338      17.642385      51.666004    
    172000   0.97935162     17.989996      51.666347    
    173000   1.0009346      18.205514      51.488984    
    174000   1.0055834      17.726348      51.540808    
    175000   1.0073539      18.488936      51.529935    
    176000   1.051498       18.157432      51.498528    
    177000   0.99696386     17.754073      51.244336    
    178000   0.98280914     17.3227        51.243515    
    179000   1.0247223      17.695861      51.277952    
    180000   0.97391094     18.516848      51.233864    
    181000   0.96333233     17.876511      50.931677    
    182000   1.0002384      18.059836      50.779521    
    183000   1.0130341      17.81045       50.675835    
    184000   1.0300826      17.555045      50.656426    
    185000   1.0076694      18.037403      50.549312    
    186000   1.0208694      18.113668      50.365402    
    187000   0.98832924     18.250185      50.179631    
    188000   0.98783357     18.289932      49.898772    
    189000   1.0117701      17.682746      49.750618    
    190000   0.96596489     17.57402       49.465627    
    191000   1.001385       17.808232      49.350651    
    192000   1.0014941      17.927648      49.41648     
    193000   0.99075869     17.891926      49.365549    
    194000   1.0195108      17.573889      49.4138      
    195000   1.0349056      18.526823      49.200545    
    196000   1.0017893      18.177964      49.057463    
    197000   0.94613334     17.740046      49.021678    
    198000   1.0203741      17.301879      48.987228    
    199000   1.0073836      18.037322      48.864818    
    200000   0.96464998     18.014473      48.904444    
    201000   1.0018321      17.78961       48.791969    
    202000   0.9921909      17.933158      48.86036     
    203000   0.95875662     17.806732      49.140371    
    204000   1.0168088      17.661135      48.998874    
    205000   0.99277246     18.295819      49.147338    
    206000   0.95039029     17.401439      49.015553    
    207000   1.0058622      17.251524      48.989059    
    208000   0.98607119     18.363065      48.918765    
    209000   0.98192976     18.261976      48.725618    
    210000   1.0354155      17.931131      48.646414    
    211000   0.98509764     17.768794      48.693981    
    212000   1.0252405      18.378977      48.605174    
    213000   1.0218402      17.903919      48.590021    
    214000   0.9839782      17.693889      48.632084    
    215000   1.0185278      17.897657      48.515062    
    216000   1.0141059      17.75924       48.580251    
    217000   1.0025783      18.120042      48.335683    
    218000   1.0052762      17.466712      48.300165    
    219000   1.0012874      17.925841      48.087574    
    220000   0.98755177     17.533725      48.110856    
    221000   0.97696214     17.684248      47.995722    
    222000   0.95582382     17.617088      47.926444    
    223000   0.971585       17.30217       47.877462    
    224000   0.99850855     17.686848      47.712325    
    225000   1.0096174      17.76605       47.396192    
    226000   1.0357213      17.714039      46.91429     
    227000   1.0272066      18.732996      46.539388    
    228000   0.97171925     18.075471      46.584288    
    229000   1.0407473      18.265685      46.527141    
    230000   0.98644946     17.601817      46.562969    
    231000   0.95611949     18.030839      46.564587    
    232000   0.98572628     17.625397      46.533403    
    233000   0.97866125     17.479705      46.585439    
    234000   0.9586363      17.685621      46.541796    
    235000   0.99758799     17.594832      46.448904    
    236000   1.0103893      17.750867      46.397459    
    237000   0.97542937     17.712414      46.553501    
    238000   1.0362514      17.511158      46.486428    
    239000   0.98959939     17.605214      46.292555    
    240000   0.98607186     18.223463      46.224132    
    241000   0.99190966     18.012104      46.112347    
    242000   1.0171452      18.086763      46.115738    
    243000   0.98752883     17.70203       46.092031    
    244000   0.96438099     17.399606      46.144046    
    245000   0.98733949     18.121273      46.025709    
    246000   0.98987888     17.478089      45.803953    
    247000   0.99437251     17.717143      45.73774     
    248000   0.94739313     16.949558      45.622009    
    249000   0.98165113     17.867132      45.453288    
    250000   0.98865061     17.577058      45.5646      
    251000   1.0283822      17.755775      45.756089    
    252000   0.99861845     17.898468      45.521098    
    253000   0.97386673     17.613156      45.537082    
    254000   0.98401249     17.99406       45.558747    
    255000   0.99447243     17.671729      45.552012    
    256000   1.0094336      17.653339      45.216602    
    257000   1.0397666      17.904936      45.311531    
    258000   0.99172823     17.150613      45.258695    
    259000   1.0356208      17.64674       45.134587    
    260000   1.0015638      18.066064      44.957923    
    261000   0.97576951     16.787439      45.010656    
    262000   1.0000529      17.567399      44.951454    
    263000   0.9879956      17.947734      45.013606    
    264000   0.97778286     17.5059        44.932794    
    265000   0.99718368     17.119489      45.028393    
    266000   0.95523398     17.730395      44.881061    
    267000   1.0192831      17.875833      44.974154    
    268000   1.003957       18.268765      44.882127    
    269000   1.0488345      18.082683      44.718902    
    270000   1.0160698      18.009109      44.649126    
    271000   1.015652       18.541961      44.804435    
    272000   1.0233914      18.389423      44.817671    
    273000   0.96729358     17.386771      44.687252    
    274000   1.0109171      17.968631      44.629424    
    275000   1.0046249      17.815277      44.497896    
    276000   0.97353809     17.971248      44.486829    
    277000   1.0124307      17.672867      44.379022    
    278000   0.9992799      17.910547      44.175864    
    279000   1.0392109      17.674467      44.15697     
    280000   1.0071694      18.140785      43.91624     
    281000   1.0052586      17.330911      43.779735    
    282000   0.99641317     17.64039       43.642492    
    283000   1.0102321      17.632756      43.571817    
    284000   1.0519223      17.417903      43.427836    
    285000   1.0290535      17.55802       43.212384    
    286000   0.99475429     17.333171      43.300263    
    287000   0.96606205     18.134299      43.117525    
    288000   0.99682026     17.484613      43.284347    
    289000   1.0005487      17.324703      43.462482    
    290000   1.0023288      17.806126      43.263285    
    291000   1.0206491      17.919791      43.28056     
    292000   0.99662205     17.859949      43.222462    
    293000   1.0394297      17.137584      43.1346      
    294000   1.0101074      17.264084      43.132367    
    295000   0.9708574      17.677321      42.955767    
    296000   1.0155659      17.833615      42.951032    
    297000   1.0496258      17.779474      42.771859    
    298000   0.98731649     17.864435      42.746434    
    299000   1.0443605      17.283138      42.683616    
    300000   0.96110383     17.692995      42.540458    
    301000   0.97333239     17.392407      42.57541     
    302000   0.96770033     17.860305      42.510195    
    303000   0.98593355     17.417315      42.409321    
    304000   0.99706571     17.511824      42.144648    
    305000   0.97432543     17.608335      42.084265    
    306000   1.0000044      17.540172      42.076012    
    307000   1.0193583      17.557894      42.018796    
    308000   1.0093233      17.73484       42.023956    
    309000   0.95979048     17.627435      41.998436    
    310000   1.0366433      18.134404      42.062992    
    311000   1.0251415      17.941679      41.934641    
    312000   0.98964211     17.541844      41.860538    
    313000   1.0140086      18.000547      41.433322    
    314000   0.99661013     17.600055      41.286144    
    315000   1.0289318      17.508614      41.153074    
    316000   0.99548345     17.81429       41.227996    
    317000   0.96472706     17.762905      40.988128    
    318000   0.9793022      17.612088      40.742838    
    319000   0.93937978     17.54696       40.612434    
    320000   1.00931        17.773         40.70321     
    321000   0.98063447     17.403083      40.43076     
    322000   0.99831571     17.878732      40.350026    
    323000   1.0136301      17.545644      40.594923    
    324000   0.97474341     17.820172      40.462705    
    325000   0.98723158     17.375672      40.298107    
    326000   0.98558952     17.459015      40.201107    
    327000   0.99906602     17.960527      40.251381    
    328000   1.0134479      17.605137      39.923001    
    329000   0.98519785     17.579136      39.867948    
    330000   1.0360964      17.637876      39.513977    
    331000   0.99420306     17.964807      39.370863    
    332000   1.0253529      17.923428      39.024048    
    333000   0.97512919     17.502716      38.895815    
    334000   1.0322263      17.396131      39.000283    
    335000   0.97041717     17.520803      38.931783    
    336000   0.9931921      17.393794      39.117778    
    337000   0.94714898     17.649784      38.847464    
    338000   0.98798885     17.918103      38.729118    
    339000   1.0085598      17.648627      38.753572    
    340000   0.97288633     18.032044      38.829146    
    341000   0.98525029     17.240669      38.695558    
    342000   0.97260469     17.278016      38.603621    
    343000   0.99820431     17.740003      38.499939    
    344000   1.0058379      18.249023      38.45527     
    345000   1.0031046      17.888812      38.553656    
    346000   0.98368481     17.626817      38.316641    
    347000   0.99848468     18.064109      38.378539    
    348000   1.0398159      17.812949      38.359029    
    349000   1.0523547      17.217786      38.288602    
    350000   1.0305989      17.266913      38.091286    
    351000   1.0070079      17.89581       38.070069    
    352000   0.99047414     17.616003      38.13541     
    353000   1.009572       17.541133      38.109432    
    354000   1.0211127      18.070966      37.97938     
    355000   1.0255796      18.14546       37.695404    
    356000   1.0258292      17.868072      37.598033    
    357000   0.98004602     17.850506      37.392206    
    358000   1.007729       17.258663      37.260366    
    359000   0.97788087     17.625228      37.229855    
    360000   1.0082691      18.228106      36.991441    
    361000   0.98246497     17.903276      36.709398    
    362000   1.0040509      17.684548      36.592923    
    363000   1.029819       16.876194      36.574895    
    364000   0.99619972     17.833956      36.354259    
    365000   0.98239559     18.012945      35.976906    
    366000   1.0140652      17.585844      35.91868     
    367000   0.97321698     17.586718      35.691383    
    368000   0.97511818     17.513608      35.802261    
    369000   0.99415892     17.259434      35.731616    
    370000   0.98883592     17.230345      35.656704    
    371000   0.9865131      17.351761      35.653356    
    372000   1.0353612      17.148947      35.566091    
    373000   0.96244349     17.633958      35.422924    
    374000   0.97389531     17.579167      35.300361    
    375000   1.000677       17.759082      35.209182    
    376000   0.99202638     17.715968      35.15618     
    377000   1.0321436      18.313066      35.038323    
    378000   1.035814       17.32886       35.050158    
    379000   1.0443642      17.904758      35.122399    
    380000   0.99544471     17.565155      35.180273    
    381000   0.97704689     17.019278      34.911226    
    382000   0.99442113     17.791316      34.777431    
    383000   1.0081676      17.470578      34.605431    
    384000   1.0216368      17.515138      34.474529    
    385000   0.99372082     17.859232      34.286854    
    386000   0.98295369     17.242635      33.979128    
    387000   0.98667036     16.532524      33.736675    
    388000   0.96608877     17.46377       33.91571     
    389000   0.99644361     16.944386      33.912871    
    390000   0.93913133     17.979039      33.869817    
    391000   1.0132643      16.945481      33.696334    
    392000   0.96796234     17.283361      33.699621    
    393000   0.96731314     17.699566      33.746583    
    394000   0.9886206      17.025226      33.86091     
    395000   0.98348928     16.987072      33.988892    
    396000   1.0156643      17.832552      34.059447    
    397000   0.99753229     16.979973      34.270474    
    398000   1.0153603      17.709008      34.225847    
    399000   1.0392175      17.645017      34.405768    
    400000   1.005824       16.992463      34.268437    
    401000   1.0015565      18.018771      34.157873    
    402000   1.0064968      17.606157      34.109746    
    403000   0.98770936     17.270293      34.157207    
    404000   1.0023023      17.24156       34.202236    
    405000   0.98873923     17.951544      34.1697      
    406000   1.0335924      17.223529      34.342358    
    407000   0.98310016     17.22213       34.461277    
    408000   1.0023351      17.66262       34.536333    
    409000   0.9751549      17.422722      34.494477    
    410000   0.99134461     17.974261      34.51449     
    411000   0.96164625     17.708138      34.584092    
    412000   1.0149769      17.319549      34.686192    
    413000   1.0290775      17.667705      34.678223    
    414000   0.96582059     17.380412      34.54648     
    415000   1.0007026      17.550121      34.380207    
    416000   0.94808099     17.135826      34.068582    
    417000   0.99484157     17.378899      33.846984    
    418000   0.99591567     17.826143      33.83409     
    419000   1.0230025      17.554145      33.736955    
    420000   1.0454985      17.732864      33.53686     
    421000   1.020397       17.548378      33.280979    
    422000   1.0131512      17.866871      33.275114    
    423000   0.96674372     16.752253      33.388654    
    424000   0.98386191     17.121196      33.297879    
    425000   1.0263558      17.559738      33.089532    
    426000   1.0512329      17.857412      33.18062     
    427000   0.97143199     17.388         33.019888    
    428000   1.0032377      17.406681      33.250244    
    429000   0.9589704      17.07694       33.129497    
    430000   1.015472       18.478418      33.153773    
    431000   0.99431926     17.402904      32.869101    
    432000   1.0047392      17.600925      33.013436    
    433000   0.99264685     17.541821      33.019549    
    434000   1.0127345      17.547326      32.880571    
    435000   0.99750715     16.455919      32.841348    
    436000   0.99121289     17.177104      32.851749    
    437000   1.0406696      17.575396      32.813679    
    438000   1.0184284      17.265239      32.649041    
    439000   1.006962       17.754359      32.54924     
    440000   1.0026191      17.332941      32.366422    
    441000   0.98879043     17.213735      32.379919    
    442000   1.0104985      16.932346      32.415458    
    443000   1.0430218      17.672656      32.272908    
    444000   1.0263055      17.195746      32.386076    
    445000   0.98068491     17.23191       32.675816    
    446000   1.0300476      17.958781      32.700702    
    447000   0.92814864     17.953251      32.441099    
    448000   0.96636137     16.93943       32.306232    
    449000   0.9842061      17.901166      32.510926    
    450000   1.021954       17.360978      32.589553    
    451000   0.97137029     17.403822      32.587986    
    452000   0.95861024     17.628242      32.527714    
    453000   0.99317222     17.583183      32.518812    
    454000   1.0015389      17.747486      32.186412    
    455000   1.0214996      18.202414      32.066788    
    456000   1.0404861      18.198932      32.089597    
    457000   1.0399846      17.459033      32.146874    
    458000   1.0192037      17.635059      32.094692    
    459000   0.96045922     17.331115      31.916748    
    460000   1.0347032      18.01353       31.773572    
    461000   1.0062512      17.639224      31.838911    
    462000   0.97874676     17.299988      31.819377    
    463000   0.9873594      17.162517      31.578799    
    464000   1.008235       17.628579      31.430795    
    465000   0.9868613      17.889455      31.216977    
    466000   0.9828121      17.957057      31.119439    
    467000   0.96188092     17.646999      31.102519    
    468000   1.0309874      17.428214      31.232713    
    469000   1.0015572      18.019882      31.1583      
    470000   1.0060348      17.127128      31.05188     
    471000   1.0185071      17.036012      30.822167    
    472000   0.99080885     17.63813       30.555849    
    473000   0.97585954     16.934638      30.298606    
    474000   1.0041135      17.589768      30.058807    
    475000   1.0092204      16.807632      29.958833    
    476000   1.04009        17.667314      29.989121    
    477000   0.98725638     17.496474      29.871177    
    478000   1.0237922      17.513769      29.980641    
    479000   1.007467       17.617197      29.848855    
    480000   0.98793063     17.216148      29.750678    
    481000   1.0206629      17.156855      29.702643    
    482000   0.95148498     17.189949      29.680387    
    483000   1.027356       17.345104      29.683874    
    484000   1.0289513      17.562326      29.429293    
    485000   1.0217447      16.989222      29.576145    
    486000   1.0168701      17.168745      29.426247    
    487000   0.98665894     17.841621      29.433675    
    488000   1.0127761      17.466931      29.317011    
    489000   1.0409531      17.717333      29.110273    
    490000   0.97748214     17.085374      29.125088    
    491000   0.99821641     17.371018      29.313565    
    492000   0.99410015     17.091001      29.153591    
    493000   0.99418409     17.164427      29.139196    
    494000   0.99194079     17.948354      28.998321    
    495000   0.99638684     17.54275       29.076561    
    496000   1.0320529      17.132162      28.995421    
    497000   1.0295663      17.29349       28.988823    
    498000   0.99272814     17.688634      29.036319    
    499000   1.0178889      17.442384      28.982977    
    500000   0.96957869     17.135646      28.971409    
    501000   0.99579948     17.459034      28.916951    
    502000   1.0361035      17.591111      28.784471    
    503000   1.0117999      17.178574      28.813244    
    504000   1.0152258      17.854058      28.937689    
    505000   0.99898442     17.605687      28.978943    
    506000   1.040265       17.364679      28.806625    
    507000   0.99413142     17.483951      28.759043    
    508000   0.99131493     17.458917      28.560996    
    509000   0.98518541     17.062579      28.393891    
    510000   0.9820454      17.553299      28.535529    
    511000   0.96527028     17.48317       28.486771    
    512000   1.0228859      17.198658      28.189977    
    513000   0.959395       17.200243      28.167065    
    514000   1.0251702      16.909822      28.038148    
    515000   0.99132184     17.164043      27.946695    
    516000   1.0209726      17.511844      27.874945    
    517000   0.99543839     17.848824      27.920847    
    518000   0.98963617     17.120733      27.90925     
    519000   1.0512625      17.630992      27.793349    
    520000   0.95950075     17.150844      27.68093     
    521000   0.9813684      16.392362      27.766831    
    522000   1.0351795      17.233045      27.734398    
    523000   0.96022627     16.725823      27.790415    
    524000   1.0351117      17.492422      27.676802    
    525000   1.0201499      17.296379      27.694094    
    526000   0.97106814     16.860481      27.757599    
    527000   1.0060174      17.274695      27.550519    
    528000   0.99660094     17.20974       27.135064    
    529000   1.0527457      17.454101      27.094227    
    530000   1.0226696      17.557245      27.053237    
    531000   0.9940466      16.946119      27.110697    
    532000   1.0537218      17.675892      27.023682    
    533000   1.0214909      17.254634      26.969072    
    534000   0.96346868     17.132486      26.771983    
    535000   1.0059973      17.707202      26.674123    
    536000   0.98082034     17.159013      26.685621    
    537000   1.0030113      17.620876      26.750493    
    538000   1.0239138      17.565766      26.73338     
    539000   1.0108678      17.007599      26.713112    
    540000   1.001624       17.194103      26.834003    
    541000   1.0094481      16.793331      26.615595    
    542000   0.97654245     17.452279      26.326732    
    543000   0.97349986     17.750607      26.149075    
    544000   1.019407       17.920263      26.301933    
    545000   0.99423803     17.71075       26.355912    
    546000   1.0073556      17.105295      26.257334    
    547000   0.98000937     17.414263      26.175254    
    548000   1.0024636      17.405319      26.048708    
    549000   1.0302527      17.833104      26.073659    
    550000   0.99690588     17.141367      25.909677    
    551000   1.0326858      17.488108      25.935937    
    552000   0.98989967     17.520411      25.838804    
    553000   0.997666       16.853428      25.806534    
    554000   0.93890563     16.704569      25.729935    
    555000   0.99317533     18.144971      25.574056    
    556000   1.0060497      17.162281      25.456029    
    557000   0.96697163     17.386355      25.185227    
    558000   1.0391665      17.236875      25.055292    
    559000   1.0044406      17.517399      25.039341    
    560000   0.9814967      17.9727        24.901118    
    561000   0.99098654     17.667599      24.569095    
    562000   1.0290743      17.127589      24.441901    
    563000   1.0479056      17.523108      24.38942     
    564000   1.0045631      17.441322      24.38563     
    565000   1.0038802      17.422535      24.152732    
    566000   1.0592088      17.721565      23.950864    
    567000   0.97577519     17.862525      23.900379    
    568000   1.0198228      17.210516      23.797071    
    569000   0.98166888     17.200025      23.624484    
    570000   1.0121934      17.425654      23.45499     
    571000   0.98714161     17.050569      23.381886    
    572000   0.9974623      17.201219      23.250994    
    573000   1.0002869      17.300171      23.057288    
    574000   0.98096086     17.154005      22.942952    
    575000   0.95437552     17.556885      22.87386     
    576000   0.99462782     16.831089      22.791905    
    577000   0.95173781     17.614805      22.822465    
    578000   1.0257926      17.3044        22.882396    
    579000   1.0180492      17.309389      22.768533    
    580000   0.99794694     17.597619      22.618145    
    581000   1.0497033      17.603895      22.425826    
    582000   1.0355925      17.402207      22.330291    
    583000   1.0255792      17.571736      22.33746     
    584000   1.0194541      17.476763      22.091642    
    585000   1.0166199      17.220906      21.965473    
    586000   1.0151721      17.392232      22.134668    
    587000   1.0152152      17.73723       21.998924    
    588000   0.98751246     17.047526      21.98084     
    589000   0.98263607     17.361716      21.910138    
    590000   1.0006749      17.37301       21.81748     
    591000   0.97756407     17.079151      21.903502    
    592000   0.95800593     17.155895      21.840797    
    593000   1.0058766      17.288151      21.966182    
    594000   0.96261932     17.349355      21.776806    
    595000   1.0098366      17.230923      21.762121    
    596000   1.02392        17.337802      21.539241    
    597000   0.97442848     17.047217      21.745267    
    598000   1.0030338      17.194499      21.665043    
    599000   1.0165462      17.519143      21.58377     
    600000   1.0578908      16.581542      21.442261    
    601000   0.99159269     16.564044      21.423914    
    602000   1.0100675      17.649415      21.420219    
    603000   0.97855684     17.386381      21.499247    
    604000   0.96458338     17.360758      21.439713    
    605000   1.0125916      17.418955      21.43788     
    606000   1.0052343      17.255793      21.368476    
    607000   0.98657495     17.17987       21.37579     
    608000   1.0357171      17.316488      21.27924     
    609000   0.97478046     17.783372      21.373059    
    610000   1.0124143      17.504214      21.448789    
    611000   0.95126211     17.042744      21.467509    
    612000   0.99191883     17.365619      21.407531    
    613000   0.99232306     17.502704      21.202712    
    614000   1.0205147      17.627061      21.099445    
    615000   1.0434891      17.505499      20.853116    
    616000   0.9697722      17.10254       20.588722    
    617000   0.96987398     16.920084      20.368533    
    618000   1.0215791      17.529307      20.496916    
    619000   0.98909582     17.244697      20.228669    
    620000   0.97609084     17.437322      20.147265    
    621000   1.0227329      17.565463      20.168722    
    622000   0.99639734     17.156988      20.270537    
    623000   1.0201471      17.991221      20.341085    
    624000   1.0001487      17.288114      20.228986    
    625000   0.98613241     17.375886      20.142342    
    626000   1.0021396      17.165477      20.055297    
    627000   1.028359       17.216315      19.997699    
    628000   0.99186743     17.687394      19.833648    
    629000   0.98890463     17.191437      19.551114    
    630000   1.0125378      17.829272      19.616781    
    631000   1.0071043      17.323457      19.634811    
    632000   1.0003023      16.965914      19.533295    
    633000   0.95734669     17.199512      19.797189    
    634000   0.99774209     17.178107      19.863947    
    635000   0.98013037     17.265437      19.915821    
    636000   1.0065804      17.464905      19.823515    
    637000   1.0487065      17.247162      19.773519    
    638000   1.0131901      17.33004       19.74515     
    639000   0.97030083     16.925731      19.665403    
    640000   1.0302393      17.19009       19.581183    
    641000   0.96854355     17.499281      19.51505     
    642000   0.97602519     16.663912      19.438139    
    643000   1.0215787      17.691725      19.423191    
    644000   0.99387186     17.19651       19.520712    
    645000   1.0218289      17.825893      19.301826    
    646000   1.0516415      17.167104      19.141911    
    647000   0.97516972     17.130408      19.208908    
    648000   0.9866412      17.153244      19.056606    
    649000   0.98794411     17.404815      18.8648      
    650000   0.97929232     16.721385      18.76994     
    651000   1.0065637      17.556383      18.744656    
    652000   1.0554369      17.809776      18.71296     
    653000   1.0467513      17.31299       18.710483    
    654000   1.0072539      16.98537       18.503836    
    655000   1.0125214      17.947609      18.184349    
    656000   0.93974842     16.815664      18.343484    
    657000   1.0419503      17.35727       18.28763     
    658000   1.0263184      17.493871      18.30848     
    659000   0.97683502     17.393267      17.965765    
    660000   0.97597343     17.027702      17.74187     
    661000   0.9936374      16.943822      17.699373    
    662000   0.96833478     17.093017      17.437268    
    663000   1.0174249      17.371337      17.423388    
    664000   1.0138421      17.574255      17.112831    
    665000   0.97877329     17.010809      16.880139    
    666000   0.98718777     17.268104      16.787686    
    667000   0.98399365     17.318286      16.417806    
    668000   1.007527       17.613322      16.318335    
    669000   1.004839       17.575654      16.440316    
    670000   1.0220567      17.306054      16.496414    
    671000   1.0134709      17.353311      16.361386    
    672000   0.98858836     17.04394       16.361897    
    673000   1.0130159      17.06034       16.381649    
    674000   1.0453862      17.685739      16.37163     
    675000   0.98474239     17.286541      16.281472    
    676000   0.98237015     17.060938      16.19538     
    677000   0.99097421     17.123956      16.153714    
    678000   1.0527689      17.472213      16.176787    
    679000   1.0190166      16.990944      16.236023    
    680000   0.96462815     17.093643      16.145272    
    681000   1.0117955      17.089298      16.084942    
    682000   1.0320596      17.20844       15.963289    
    683000   0.99854096     16.903375      16.023546    
    684000   0.98296358     17.43671       15.819417    
    685000   1.0720056      17.324371      15.933716    
    686000   0.95812249     16.852771      15.720007    
    687000   0.99421649     17.063403      15.745375    
    688000   0.99839748     16.908509      15.600896    
    689000   0.98968859     16.96537       15.542868    
    690000   0.97101013     16.738987      15.302821    
    691000   0.9939894      17.27916       15.260488    
    692000   1.0022345      16.640876      15.213916    
    693000   0.99975757     17.325872      15.133112    
    694000   0.93184663     17.682969      14.870987    
    695000   0.97919439     16.999958      14.749293    
    696000   1.0022495      17.252316      14.877661    
    697000   1.0251604      16.703214      14.907616    
    698000   0.97986696     16.696603      14.701082    
    699000   0.97421208     17.250503      14.809318    
    700000   1.0406001      17.248365      14.524676    
    701000   0.99279802     17.374823      14.561463    
    702000   0.98771365     16.924371      14.38632     
    703000   0.98058604     17.135471      14.104175    
    704000   0.97447172     17.241552      13.869594    
    705000   1.0052826      17.046837      13.84804     
    706000   0.98227016     17.471076      13.755431    
    707000   1.0435519      16.887298      13.836039    
    708000   1.0034626      16.985641      13.864855    
    709000   0.99632798     16.793247      13.706294    
    710000   0.95944074     16.90622       13.601715    
    711000   1.020198       17.292779      13.738868    
    712000   0.97795362     17.099159      13.959261    
    713000   0.97598887     17.377684      13.712943    
    714000   0.99029918     17.427142      13.670033    
    715000   1.0315056      16.766169      13.537009    
    716000   0.99122682     16.998711      13.483032    
    717000   0.99084899     17.420336      13.393043    
    718000   1.001291       18.034463      13.380244    
    719000   0.99347215     16.80569       13.290612    
    720000   1.0042056      16.99367       13.101758    
    721000   1.011246       17.713056      12.951272    
    722000   0.9727202      16.584075      12.782165    
    723000   0.98392516     16.850745      12.728705    
    724000   0.98387529     17.079748      12.768601    
    725000   0.99530817     17.123174      12.605924    
    726000   0.99551252     17.015682      12.454978    
    727000   0.98973144     16.882164      12.40508     
    728000   0.9704627      16.797717      12.290518    
    729000   1.0242198      17.107493      12.223639    
    730000   0.98101078     17.420838      12.164909    
    731000   1.0160616      16.708258      11.807251    
    732000   0.9561029      16.876123      11.558643    
    733000   0.97501681     16.952377      11.510812    
    734000   0.99815966     17.245746      11.253994    
    735000   0.99035615     16.857738      11.394192    
    736000   1.0410144      17.819068      11.332451    
    737000   0.9980516      17.249314      11.476726    
    738000   1.0345769      17.135528      11.447035    
    739000   0.99654256     16.922502      11.422941    
    740000   0.97922859     17.435879      11.311647    
    741000   0.97939301     17.679631      11.047454    
    742000   1.0096962      17.545711      10.823156    
    743000   0.98070389     16.964181      10.761651    
    744000   0.99203988     17.390381      10.588974    
    745000   0.99713548     17.117988      10.739697    
    746000   1.0226589      17.644935      10.676155    
    747000   1.0021303      17.006565      10.716181    
    748000   1.0210523      17.098727      10.69606     
    749000   0.98375516     17.344711      10.66817     
    750000   0.97735724     17.115189      10.627526    
    751000   1.0181264      16.804319      10.623872    
    752000   0.97810808     17.528757      10.398145    
    753000   0.96909219     17.685856      10.395486    
    754000   1.021811       17.353745      10.412634    
    755000   1.023099       16.986475      10.500555    
    756000   0.96656919     16.794868      10.421011    
    757000   1.0214688      16.895093      10.341072    
    758000   0.99504172     16.978111      10.107534    
    759000   0.97001225     17.11672       10.02897     
    760000   1.0021432      16.911198      9.8913985    
    761000   0.98499177     16.924047      9.8301677    
    762000   0.9772103      17.16511       9.8825088    
    763000   0.99320943     16.58346       9.9187611    
    764000   1.0029518      17.317052      9.7959889    
    765000   1.0076347      17.250236      9.7814942    
    766000   0.97249043     17.139513      9.5344083    
    767000   0.98396593     17.322609      9.3952447    
    768000   1.0200167      16.703124      9.3013995    
    769000   1.0016616      17.047629      9.3119614    
    770000   0.99406633     17.716796      9.4009937    
    771000   1.0022698      16.848513      9.3182063    
    772000   1.0317299      16.769876      9.236465     
    773000   1.0009548      16.912564      9.2696745    
    774000   1.0102021      17.637934      9.2629405    
    775000   1.0089874      17.026984      9.2191382    
    776000   1.010616       17.248021      9.2423469    
    777000   1.0055083      17.287375      9.0318863    
    778000   0.98832957     16.983303      8.8105354    
    779000   0.98961872     17.294131      8.9709725    
    780000   0.97694141     17.085279      8.6848572    
    781000   1.0032783      17.217734      8.5516611    
    782000   0.98589985     16.961779      8.3912167    
    783000   0.94290969     16.45915       8.2862156    
    784000   1.0311527      17.384827      8.1791745    
    785000   0.99767278     17.03412       7.9742843    
    786000   0.99230086     16.478976      7.9230714    
    787000   0.98401974     16.82426       7.8397845    
    788000   1.0277554      17.262742      7.5953541    
    789000   1.0129835      16.860295      7.4513164    
    790000   0.98838648     16.72398       7.344302     
    791000   0.97085656     17.049038      7.2682467    
    792000   1.0097065      16.563159      7.0823287    
Fix halt condition for fix-id 3 met on step 793000 with value 6.986607139763764 (src/fix_halt.cpp:237)
    793000   0.99148973     16.203941      6.9866071    
Loop time of 767.098 on 2 procs for 693000 steps with 1101 atoms

Performance: 780542.126 tau/day, 903.405 timesteps/s
138.0% CPU use with 1 MPI tasks x 2 OpenMP threads

MPI task timing breakdown:
Section |  min time  |  avg time  |  max time  |%varavg| %total
---------------------------------------------------------------
Pair    | 233.59     | 233.59     | 233.59     |   0.0 | 30.45
Bond    | 14.362     | 14.362     | 14.362     |   0.0 |  1.87
Neigh   | 483.16     | 483.16     | 483.16     |   0.0 | 62.99
Comm    | 0.20217    | 0.20217    | 0.20217    |   0.0 |  0.03
Output  | 2.1231     | 2.1231     | 2.1231     |   0.0 |  0.28
Modify  | 31.559     | 31.559     | 31.559     |   0.0 |  4.11
Other   |            | 2.102      |            |       |  0.27

Nlocal:           1101 ave        1101 max        1101 min
Histogram: 1 0 0 0 0 0 0 0 0 0
Nghost:              0 ave           0 max           0 min
Histogram: 1 0 0 0 0 0 0 0 0 0
Neighs:         248356 ave      248356 max      248356 min
Histogram: 1 0 0 0 0 0 0 0 0 0

Total # of neighbors = 248356
Ave neighs/atom = 225.57312
Ave special neighs/atom = 1.9981835
Neighbor list builds = 5916
Dangerous builds = 0

# This simulation is done
# Move onto the next one
clear
  using 2 OpenMP thread(s) per MPI task
package omp 0
using multi-threaded neighbor list subroutines
next f
jump SELF

###
# Reference paper:
# K. Kremer and G. S. Grest
# Dynamics of entangled linear polymer melts: A molecular-dynamics simulation
# J Chem Phys 92, 5057 (1990)

##################################
# MIHIR: for branched polymers
# LJ minimum first to expand and explore, then collapse
###

###
# Looping through the various N7B4 polymers to simulate,
# define variables to switch through
variable f index bb72nuc7bl9bn4d30tot200V2 bb109nuc7bl13bn4d30tot300V2 bb145nuc7bl18bn4d30tot400V2 bb181nuc7bl22bn4d30tot500V2 bb218nuc7bl27bn4d30tot600V2 bb254nuc7bl31bn4d30tot700V2 bb290nuc7bl36bn4d30tot800V2 bb327nuc7bl40bn4d30tot900V2 bb363nuc7bl45bn4d30tot1000V2 bb400nuc7bl50bn4d30tot1100V2 bb436nuc7bl54bn4d30tot1200V2
# variable f index bb36nuc7bl4bn4d30tot100 bb72nuc7bl9bn4d30tot200 bb109nuc7bl13bn4d30tot300 bb145nuc7bl18bn4d30tot400 bb181nuc7bl22bn4d30tot500 bb218nuc7bl27bn4d30tot600 bb254nuc7bl31bn4d30tot700 bb290nuc7bl36bn4d30tot800 bb327nuc7bl40bn4d30tot900 bb363nuc7bl45bn4d30tot1000 bb400nuc7bl50bn4d30tot1100 bb436nuc7bl54bn4d30tot1200
# variable f index  bb36nuc7bl4bn4d30tot100V2
###


###
# Box and units  (use LJ units and periodic boundaries)
###

units lj
log N7B4/trial2/logs/$f.log
log N7B4/trial2/logs/bb436nuc7bl54bn4d30tot1200V2.log
