#atom_style bond #no stiffness
atom_style angle #with stiffness

boundary        p p p
###
# Pair interactions require lists of neighbours to be calculated
###

#neighbor 0.3 bin
neighbor 4 bin

neigh_modify every 1 delay 1 check yes
atom_modify sort 0 0
### Generate RESTART file, SPECIAL format, not a .txt file ###
### Useful if simulation crashes ###

restart 1000000 N7B4/trial2/restarts/$f.restart
restart 1000000 N7B4/trial2/restarts/bb72nuc7bl9bn4d30tot200V2.restart
#############################



### READ "start" data file ###

read_data N7B4/trial2/dats2/$f.dat
read_data N7B4/trial2/dats2/bb72nuc7bl9bn4d30tot200V2.dat
Reading data file ...
  orthogonal box = (-1000 -1000 -1000) to (1000 1000 1000)
  1 by 1 by 1 MPI processor grid
  reading atoms ...
  199 atoms
  scanning bonds ...
  3 = max bonds/atom
  scanning angles ...
  6 = max angles/atom
  reading bonds ...
  198 bonds
  reading angles ...
  218 angles
Finding 1-2 1-3 1-4 neighbors ...
  special bond factors lj:    0        0        0       
  special bond factors coul:  0        0        0       
     4 = max # of 1-2 neighbors
     4 = max # of 1-3 neighbors
     8 = max # of 1-4 neighbors
    12 = max # of special neighbors
  special bonds CPU = 0.002 seconds
  read_data CPU = 0.062 seconds

######################

### READ "REstart" data file ###

######################



###
# Define groups (atom type 1 is group 'all')
###
group all type 1
199 atoms in group all


###
# Dump configs - "simple dumpings"
###

###
# Dump configs + box coords
###

dump   1   all   custom   1000  N7B4/trial2/trjs/$f.lammpstrj  id  x y z  ix iy iz
dump   1   all   custom   1000  N7B4/trial2/trjs/bb72nuc7bl9bn4d30tot200V2.lammpstrj  id  x y z  ix iy iz
dump_modify   1   format line "%d %.5f %.5f %.5f %d %d %d"

########################################################################


###################################################################
# Stiffness term
#
# E = K * (1+cos(theta)), K>0
#
angle_style   cosine
#change this coefficient to change stiffness (e.g. 1,5,10)
angle_coeff   1 1.0
###################################################################

###################################################################
# Pair interaction between non-bonded atoms
#
#  Lennard-Jones 12-6 potential with cutoff:
#  potential E=4epsilon[ (sigma/r)^12 - (sigma/r)^6]  for r<r_cut
#
#  1.12246 = 2^(1/6) is the minimum of the potential


pair_style      lj/cut 1.12246152962189
#pair_style      lj/cut 3

#
#  pair_modify shift yes adds a constant to the potential such

#  that E(r_cut)=0. Forces remains unchanged.
#

pair_modify     shift yes

#
#  pair_coeff for lj/cut, specify 4:
#    * atom type interacting with
#    * atom type
#    * epsilon (energy units)
#    * sigma (distance units)
#

pair_coeff      1 1 1.0 1.0
###################################################################

###################################################################
# Pair interaction between non-bonded atoms
#
#  soft potential, for PUSHING apart overlapping atoms
#  potential E=A*(1 + cos(pi*r/r_c))
#
#  1.12246 = 2^(1/6) is the cut-off r_c

#pair_style     soft 1.12246152962189

#
#  pair_coeff for soft, specify 3:
#    * atom type interacting with
#    * atom type
#    * A
#
#

#pair_coeff      1 1 100.0
###################################################################

###################################################################
# Pair interaction between bonded atoms
#
# Fene potential + Lennard Jones 12-6:

#
#  E= - 0.5 K R0^2 ln[ 1- (r/R0)^2]
#     + 4epsilon[ (sigma/r)^12 - (sigma/r)^6] + epsilon
#

bond_style   fene


#
# For style fene, specify:
#   * bond type
#   * K (energy/distance^2)
#   * R0 (distance)
#   * epsilon (energy)  (LJ component)
#   * sigma (distance)  (LJ component)
#


special_bonds fene #<=== I M P O R T A N T (new command)
Finding 1-2 1-3 1-4 neighbors ...
  special bond factors lj:    0        1        1       
  special bond factors coul:  0        1        1       
     4 = max # of 1-2 neighbors
    12 = max # of special neighbors
  special bonds CPU = 0.000 seconds

bond_coeff   1   30   2   1.0   1.0


###################################################

###################################################################
# Pair interaction between bonded atoms
#
# Harmonic potential:
#
#  E= K * (R-R0)^2
#

#bond_style   harmonic

#
# For style harmonic, specify:
#   * bond type
#   * K (energy/distance^2)
#   * R0 (distance)
#

#bond_coeff   1   60.0   1.0
#bond_coeff   2   harmonic 0.1   1.0

###################################################
compute 1 all gyration
variable rog equal c_1
#compute 2 all coord/atom cutoff 1.1

#dump 2 all custom 10000 contact_number.dump id c_2


###
# Set up fixes
###
thermo_style   custom   step  temp enthalpy c_1
fix 1 all nve   ###NVE ensemble

fix 2 all   langevin   1.0 1.0 1.0  778655   ###Langevin integrator Tstart Tstop 1/friction rndseed


##### Sample thermodynamic info  (temperature, energy, pressure, etc.) #####
thermo 1000









############################################################################

###
# set timestep of integrator

timestep 0.01

###
# run integration for a number of steps
###
#run 0
#variable r equal c_1
#if "$r < 63.1" then "quit 1"

# lj potential minimum, cause molecule to explore
run 100000
Generated 0 of 0 mixed pair_coeff terms from geometric mixing rule
Last active /omp style is angle_style cosine/omp
Neighbor list info ...
  update: every = 1 steps, delay = 1 steps, check = yes
  max neighbors/atom: 2000, page size: 100000
  master list distance cutoff = 5.1224615
  ghost atom cutoff = 5.1224615
  binsize = 2.5612308, bins = 781 781 781
  1 neighbor lists, perpetual/occasional/extra = 1 0 0
  (1) pair lj/cut/omp, perpetual
      attributes: half, newton on, omp
      pair build: half/bin/newton/omp
      stencil: half/bin/3d
      bin: standard
WARNING: Communication cutoff 5.12246152962189 is shorter than a bond length based estimate of 5.455. This may lead to errors. (src/comm.cpp:723)
Per MPI rank memory allocation (min/avg/max) = 1861 | 1861 | 1861 Mbytes
   Step          Temp         Enthalpy         c_1      
         0   0              13.262773      10.992044    
      1000   1.0062594      20.718707      9.7973613    
      2000   1.0007787      19.803318      9.3090314    
      3000   1.0544858      20.557726      8.8731025    
      4000   0.97392483     20.019434      8.5338501    
      5000   1.0800101      19.945373      8.7491707    
      6000   0.98385593     21.53172       8.5109455    
      7000   0.9110874      21.614597      7.8589204    
      8000   0.93765401     20.686917      7.5774263    
      9000   0.95406626     20.613442      6.9655835    
     10000   1.029137       20.583011      7.12758      
     11000   1.0064913      20.89583       6.6757714    
     12000   1.1000266      21.083398      6.7975925    
     13000   0.97066179     19.992686      6.9038574    
     14000   0.92881648     19.835238      6.5870307    
     15000   0.98503253     21.039414      6.8253107    
     16000   1.0408568      21.704556      6.9311544    
     17000   1.0492728      21.918724      6.7885302    
     18000   1.0113901      20.63879       6.8754362    
     19000   0.98074072     20.713627      6.3888627    
     20000   1.0048674      21.428201      6.4744557    
     21000   0.96777498     19.478403      6.8271887    
     22000   1.008509       20.595017      6.6007397    
     23000   1.0886325      19.968998      6.4608383    
     24000   0.91930786     20.479738      7.0152425    
     25000   1.083946       20.923222      6.4032281    
     26000   0.91496956     20.528629      6.2119453    
     27000   1.0129278      21.141833      6.1460743    
     28000   0.97358369     19.444712      6.2312053    
     29000   0.97410938     20.873489      6.1786917    
     30000   0.94452658     19.620563      6.3019016    
     31000   1.0261368      20.59512       6.3965253    
     32000   0.97576413     20.686054      6.6834673    
     33000   1.0807697      20.571545      7.1678205    
     34000   0.90574944     19.87269       7.3758107    
     35000   0.92510853     21.425484      7.0324255    
     36000   1.0451921      20.307952      7.4866934    
     37000   1.036488       20.133722      8.085838     
     38000   1.0264843      20.635111      8.2137977    
     39000   0.9397428      20.489855      8.1664307    
     40000   1.0833567      22.388733      8.0066149    
     41000   1.0406896      20.090335      7.8254079    
     42000   0.9324323      20.244677      8.1929654    
     43000   0.93216292     19.933293      8.5869371    
     44000   0.97132552     20.92824       8.695233     
     45000   1.0448154      20.618367      8.3830518    
     46000   0.99888707     19.301675      8.4792348    
     47000   1.0704009      21.59987       8.9515373    
     48000   1.1030366      20.458419      9.0859715    
     49000   0.99507945     19.948584      8.9206022    
     50000   1.0094869      20.111855      8.7206664    
     51000   1.0172735      21.713054      8.6179757    
     52000   1.0151288      20.045883      9.3680825    
     53000   1.0436779      20.691998      9.563461     
     54000   0.95444843     20.661459      9.6794439    
     55000   1.0251495      20.867042      9.2225745    
     56000   1.0731505      21.52563       9.4040872    
     57000   1.0073206      20.541207      9.2598733    
     58000   0.98676336     20.063956      9.2442574    
     59000   1.0593316      20.418532      9.4352601    
     60000   0.97097832     20.86992       9.8269255    
     61000   1.0062724      20.195048      9.8617546    
     62000   1.0605792      20.96817       9.6442534    
     63000   0.96648146     20.194473      9.3646586    
     64000   1.0264389      20.078098      9.6330876    
     65000   0.89768525     19.838589      9.0755048    
     66000   1.0011861      21.338241      9.0320879    
     67000   0.96124371     20.799279      8.9979323    
     68000   1.0115506      20.588909      9.1144624    
     69000   1.0163069      20.588563      8.5851416    
     70000   0.95457874     19.161554      8.3573656    
     71000   0.98450266     21.728965      8.4712229    
     72000   0.97997351     20.372275      8.1921426    
     73000   0.97581277     20.277626      8.459093     
     74000   1.0264247      21.596187      8.2035953    
     75000   0.94879499     19.494935      8.4849112    
     76000   1.021805       21.032118      8.6501883    
     77000   0.85130415     19.472344      8.6993121    
     78000   1.0377206      19.001991      8.8773136    
     79000   0.92516204     20.64222       8.911249     
     80000   1.1228173      21.853012      8.5566366    
     81000   1.0291958      20.415175      8.5190278    
     82000   0.89513274     21.273368      8.0150156    
     83000   1.0540389      20.177558      7.8906188    
     84000   0.95591478     20.286982      8.287093     
     85000   0.97921754     21.19982       8.4292766    
     86000   0.98540394     20.868337      8.2941629    
     87000   0.98554948     20.327906      8.0030991    
     88000   1.0798066      21.467416      7.7063679    
     89000   0.98661391     19.575824      8.0464268    
     90000   0.93490185     20.992774      8.1785183    
     91000   1.0213319      21.092758      8.0553248    
     92000   0.98675645     20.359309      8.3093483    
     93000   0.97580934     20.564291      8.2312941    
     94000   1.1307673      20.069351      9.0050811    
     95000   0.99012121     20.611278      8.9966822    
     96000   1.029632       21.711597      8.6548965    
     97000   1.0045345      20.473806      9.0850895    
     98000   1.0048017      20.793578      9.0577904    
     99000   0.99464364     21.219331      8.6289687    
    100000   0.95730415     20.210793      8.7984405    
Loop time of 256.828 on 2 procs for 100000 steps with 199 atoms

Performance: 336411.664 tau/day, 389.365 timesteps/s
101.5% CPU use with 1 MPI tasks x 2 OpenMP threads

MPI task timing breakdown:
Section |  min time  |  avg time  |  max time  |%varavg| %total
---------------------------------------------------------------
Pair    | 0.61754    | 0.61754    | 0.61754    |   0.0 |  0.24
Bond    | 0.60068    | 0.60068    | 0.60068    |   0.0 |  0.23
Neigh   | 254.18     | 254.18     | 254.18     |   0.0 | 98.97
Comm    | 0.016505   | 0.016505   | 0.016505   |   0.0 |  0.01
Output  | 0.16479    | 0.16479    | 0.16479    |   0.0 |  0.06
Modify  | 1.1651     | 1.1651     | 1.1651     |   0.0 |  0.45
Other   |            | 0.08202    |            |       |  0.03

Nlocal:            199 ave         199 max         199 min
Histogram: 1 0 0 0 0 0 0 0 0 0
Nghost:              0 ave           0 max           0 min
Histogram: 1 0 0 0 0 0 0 0 0 0
Neighs:           2658 ave        2658 max        2658 min
Histogram: 1 0 0 0 0 0 0 0 0 0

Total # of neighbors = 2658
Ave neighs/atom = 13.356784
Ave special neighs/atom = 1.9899497
Neighbor list builds = 1058
Dangerous builds = 0

# Replace lj potential, now collapse
pair_style      lj/cut 3

# Cutoff simul when gyration under 7
# Variable created with equal requires v_ + 'name'
fix 3 all halt 1000 v_rog < 7

run 3000000
Generated 0 of 0 mixed pair_coeff terms from geometric mixing rule
Last active /omp style is angle_style cosine/omp
Per MPI rank memory allocation (min/avg/max) = 1861 | 1861 | 1861 Mbytes
   Step          Temp         Enthalpy         c_1      
    100000   0.95730415     19.32536       8.7984405    
    101000   0.97188966     19.464944      7.320014     
    102000   0.95634272     18.015015      7.2071608    
Fix halt condition for fix-id 3 met on step 103000 with value 6.3764922189045254 (src/fix_halt.cpp:237)
    103000   1.0274461      18.138146      6.3764922    
Loop time of 2.77076 on 2 procs for 3000 steps with 199 atoms

Performance: 935484.850 tau/day, 1082.737 timesteps/s
106.8% CPU use with 1 MPI tasks x 2 OpenMP threads

MPI task timing breakdown:
Section |  min time  |  avg time  |  max time  |%varavg| %total
---------------------------------------------------------------
Pair    | 0.08151    | 0.08151    | 0.08151    |   0.0 |  2.94
Bond    | 0.020704   | 0.020704   | 0.020704   |   0.0 |  0.75
Neigh   | 2.6193     | 2.6193     | 2.6193     |   0.0 | 94.53
Comm    | 0.0005641  | 0.0005641  | 0.0005641  |   0.0 |  0.02
Output  | 0.005508   | 0.005508   | 0.005508   |   0.0 |  0.20
Modify  | 0.040358   | 0.040358   | 0.040358   |   0.0 |  1.46
Other   |            | 0.002856   |            |       |  0.10

Nlocal:            199 ave         199 max         199 min
Histogram: 1 0 0 0 0 0 0 0 0 0
Nghost:              0 ave           0 max           0 min
Histogram: 1 0 0 0 0 0 0 0 0 0
Neighs:           9833 ave        9833 max        9833 min
Histogram: 1 0 0 0 0 0 0 0 0 0

Total # of neighbors = 9833
Ave neighs/atom = 49.41206
Ave special neighs/atom = 1.9899497
Neighbor list builds = 27
Dangerous builds = 0

# This simulation is done
# Move onto the next one
clear
  using 2 OpenMP thread(s) per MPI task
package omp 0
using multi-threaded neighbor list subroutines
next f
jump SELF

###
# Reference paper:
# K. Kremer and G. S. Grest
# Dynamics of entangled linear polymer melts: A molecular-dynamics simulation
# J Chem Phys 92, 5057 (1990)

##################################
# MIHIR: for branched polymers
# LJ minimum first to expand and explore, then collapse
###

###
# Looping through the various N7B4 polymers to simulate,
# define variables to switch through
variable f index bb72nuc7bl9bn4d30tot200V2 bb109nuc7bl13bn4d30tot300V2 bb145nuc7bl18bn4d30tot400V2 bb181nuc7bl22bn4d30tot500V2 bb218nuc7bl27bn4d30tot600V2 bb254nuc7bl31bn4d30tot700V2 bb290nuc7bl36bn4d30tot800V2 bb327nuc7bl40bn4d30tot900V2 bb363nuc7bl45bn4d30tot1000V2 bb400nuc7bl50bn4d30tot1100V2 bb436nuc7bl54bn4d30tot1200V2
# variable f index bb36nuc7bl4bn4d30tot100 bb72nuc7bl9bn4d30tot200 bb109nuc7bl13bn4d30tot300 bb145nuc7bl18bn4d30tot400 bb181nuc7bl22bn4d30tot500 bb218nuc7bl27bn4d30tot600 bb254nuc7bl31bn4d30tot700 bb290nuc7bl36bn4d30tot800 bb327nuc7bl40bn4d30tot900 bb363nuc7bl45bn4d30tot1000 bb400nuc7bl50bn4d30tot1100 bb436nuc7bl54bn4d30tot1200
# variable f index  bb36nuc7bl4bn4d30tot100V2
###


###
# Box and units  (use LJ units and periodic boundaries)
###

units lj
log N7B4/trial2/logs/$f.log
log N7B4/trial2/logs/bb109nuc7bl13bn4d30tot300V2.log
