#atom_style bond #no stiffness
atom_style angle #with stiffness

boundary        p p p
###
# Pair interactions require lists of neighbours to be calculated
###

#neighbor 0.3 bin
neighbor 4 bin

neigh_modify every 1 delay 1 check yes
atom_modify sort 0 0
### Generate RESTART file, SPECIAL format, not a .txt file ###
### Useful if simulation crashes ###

restart 1000000 N3B4/trial2/restarts/$f.restart
restart 1000000 N3B4/trial2/restarts/bb240nuc3bl60bn4d30tot600V2.restart
#############################



### READ "start" data file ###

read_data N3B4/trial2/dats2/$f.dat
read_data N3B4/trial2/dats2/bb240nuc3bl60bn4d30tot600V2.dat
Reading data file ...
  orthogonal box = (-1000 -1000 -1000) to (1000 1000 1000)
  1 by 1 by 1 MPI processor grid
  reading atoms ...
  601 atoms
  scanning bonds ...
  3 = max bonds/atom
  scanning angles ...
  6 = max angles/atom
  reading bonds ...
  600 bonds
  reading angles ...
  608 angles
Finding 1-2 1-3 1-4 neighbors ...
  special bond factors lj:    0        0        0       
  special bond factors coul:  0        0        0       
     4 = max # of 1-2 neighbors
     4 = max # of 1-3 neighbors
     8 = max # of 1-4 neighbors
    12 = max # of special neighbors
  special bonds CPU = 0.002 seconds
  read_data CPU = 0.101 seconds

######################

### READ "REstart" data file ###

######################



###
# Define groups (atom type 1 is group 'all')
###
group all type 1
601 atoms in group all


###
# Dump configs - "simple dumpings"
###

###
# Dump configs + box coords
###

dump   1   all   custom   1000  N3B4/trial2/trjs/$f.lammpstrj  id  x y z  ix iy iz
dump   1   all   custom   1000  N3B4/trial2/trjs/bb240nuc3bl60bn4d30tot600V2.lammpstrj  id  x y z  ix iy iz
dump_modify   1   format line "%d %.5f %.5f %.5f %d %d %d"

########################################################################


###################################################################
# Stiffness term
#
# E = K * (1+cos(theta)), K>0
#
angle_style   cosine
#change this coefficient to change stiffness (e.g. 1,5,10)
angle_coeff   1 1.0
###################################################################

###################################################################
# Pair interaction between non-bonded atoms
#
#  Lennard-Jones 12-6 potential with cutoff:
#  potential E=4epsilon[ (sigma/r)^12 - (sigma/r)^6]  for r<r_cut
#
#  1.12246 = 2^(1/6) is the minimum of the potential


pair_style      lj/cut 1.12246152962189
#pair_style      lj/cut 3

#
#  pair_modify shift yes adds a constant to the potential such

#  that E(r_cut)=0. Forces remains unchanged.
#

pair_modify     shift yes

#
#  pair_coeff for lj/cut, specify 4:
#    * atom type interacting with
#    * atom type
#    * epsilon (energy units)
#    * sigma (distance units)
#

pair_coeff      1 1 1.0 1.0
###################################################################

###################################################################
# Pair interaction between non-bonded atoms
#
#  soft potential, for PUSHING apart overlapping atoms
#  potential E=A*(1 + cos(pi*r/r_c))
#
#  1.12246 = 2^(1/6) is the cut-off r_c

#pair_style     soft 1.12246152962189

#
#  pair_coeff for soft, specify 3:
#    * atom type interacting with
#    * atom type
#    * A
#
#

#pair_coeff      1 1 100.0
###################################################################

###################################################################
# Pair interaction between bonded atoms
#
# Fene potential + Lennard Jones 12-6:

#
#  E= - 0.5 K R0^2 ln[ 1- (r/R0)^2]
#     + 4epsilon[ (sigma/r)^12 - (sigma/r)^6] + epsilon
#

bond_style   fene


#
# For style fene, specify:
#   * bond type
#   * K (energy/distance^2)
#   * R0 (distance)
#   * epsilon (energy)  (LJ component)
#   * sigma (distance)  (LJ component)
#


special_bonds fene #<=== I M P O R T A N T (new command)
Finding 1-2 1-3 1-4 neighbors ...
  special bond factors lj:    0        1        1       
  special bond factors coul:  0        1        1       
     4 = max # of 1-2 neighbors
    12 = max # of special neighbors
  special bonds CPU = 0.001 seconds

bond_coeff   1   30   2   1.0   1.0


###################################################

###################################################################
# Pair interaction between bonded atoms
#
# Harmonic potential:
#
#  E= K * (R-R0)^2
#

#bond_style   harmonic

#
# For style harmonic, specify:
#   * bond type
#   * K (energy/distance^2)
#   * R0 (distance)
#

#bond_coeff   1   60.0   1.0
#bond_coeff   2   harmonic 0.1   1.0

###################################################
compute 1 all gyration
variable rog equal c_1
#compute 2 all coord/atom cutoff 1.1

#dump 2 all custom 10000 contact_number.dump id c_2


###
# Set up fixes
###
thermo_style   custom   step  temp enthalpy c_1
fix 1 all nve   ###NVE ensemble

fix 2 all   langevin   1.0 1.0 1.0  778655   ###Langevin integrator Tstart Tstop 1/friction rndseed


##### Sample thermodynamic info  (temperature, energy, pressure, etc.) #####
thermo 1000









############################################################################

###
# set timestep of integrator

timestep 0.01

###
# run integration for a number of steps
###
#run 0
#variable r equal c_1
#if "$r < 63.1" then "quit 1"

# lj potential minimum, cause molecule to explore
run 100000
Generated 0 of 0 mixed pair_coeff terms from geometric mixing rule
Last active /omp style is angle_style cosine/omp
Neighbor list info ...
  update: every = 1 steps, delay = 1 steps, check = yes
  max neighbors/atom: 2000, page size: 100000
  master list distance cutoff = 5.1224615
  ghost atom cutoff = 5.1224615
  binsize = 2.5612308, bins = 781 781 781
  1 neighbor lists, perpetual/occasional/extra = 1 0 0
  (1) pair lj/cut/omp, perpetual
      attributes: half, newton on, omp
      pair build: half/bin/newton/omp
      stencil: half/bin/3d
      bin: standard
WARNING: Communication cutoff 5.12246152962189 is shorter than a bond length based estimate of 5.455. This may lead to errors. (src/comm.cpp:723)
Per MPI rank memory allocation (min/avg/max) = 1861 | 1861 | 1861 Mbytes
   Step          Temp         Enthalpy         c_1      
         0   0              13.218019      54.397903    
      1000   0.97831649     18.114072      53.264814    
      2000   1.0147792      19.448244      52.295165    
      3000   1.0105283      19.160647      51.614699    
      4000   0.93644694     19.675333      51.413607    
      5000   0.96780918     19.10741       50.692216    
      6000   0.9775828      20.04488       49.911413    
      7000   0.9622727      19.790062      49.388942    
      8000   1.0423843      20.237557      49.36705     
      9000   0.97134253     19.921408      48.952751    
     10000   0.97353715     19.932602      48.512359    
     11000   1.0434659      20.711198      48.086588    
     12000   0.99040364     19.685289      47.991406    
     13000   0.98164786     20.187281      47.934169    
     14000   1.0542637      20.285292      47.768182    
     15000   0.97044869     19.619905      47.702107    
     16000   1.0016937      20.404447      47.49748     
     17000   1.0009532      20.233575      47.340918    
     18000   0.9303693      20.372363      47.26083     
     19000   1.0758505      20.498552      46.816858    
     20000   1.0306155      20.056452      46.698764    
     21000   1.0337         20.533253      46.637613    
     22000   1.0053602      19.936332      46.387751    
     23000   1.0125651      20.578176      46.196321    
     24000   0.96667817     20.158601      46.140166    
     25000   1.0271427      20.601099      45.839134    
     26000   1.0386385      20.143338      45.661898    
     27000   1.0334134      20.160717      45.377935    
     28000   0.99754227     20.660933      45.296453    
     29000   1.0001842      20.257135      45.095845    
     30000   1.0266578      20.934568      45.206034    
     31000   0.97667319     20.081235      44.861869    
     32000   0.98584142     20.130154      44.435269    
     33000   0.977999       19.98206       44.088993    
     34000   0.95213289     19.66395       43.94017     
     35000   1.022295       20.889721      43.548523    
     36000   0.99562704     20.078204      43.640257    
     37000   0.97352043     20.415518      43.521       
     38000   1.0507296      20.107328      43.469677    
     39000   1.0294019      20.122871      43.151246    
     40000   0.92139587     19.984487      42.578685    
     41000   1.0030666      19.880541      42.593419    
     42000   0.96557986     20.164254      42.39688     
     43000   1.0300793      19.994101      42.338593    
     44000   1.0308189      20.877084      42.452127    
     45000   0.93857363     19.927762      42.314712    
     46000   0.96336804     20.119985      41.974395    
     47000   1.0493829      20.456885      41.646826    
     48000   0.9949942      20.614187      41.567331    
     49000   1.0183842      19.737052      41.830444    
     50000   0.96619514     20.112892      41.937012    
     51000   1.028728       20.360062      41.566658    
     52000   0.97979392     21.350152      41.397117    
     53000   1.0023446      19.888289      41.285927    
     54000   1.0153349      20.690015      41.109014    
     55000   0.9710421      21.543171      41.28721     
     56000   1.0806372      21.392099      41.071029    
     57000   1.0012816      20.217825      40.93664     
     58000   1.035007       20.853922      40.488927    
     59000   1.046988       20.645654      40.531597    
     60000   1.0392563      21.027808      40.275156    
     61000   1.0397008      19.929375      39.972584    
     62000   1.0060849      20.35074       39.741296    
     63000   1.0163294      19.411691      39.907775    
     64000   1.0247164      20.461703      39.865456    
     65000   1.0210684      20.301753      39.658971    
     66000   0.95097773     21.227139      39.401388    
     67000   1.0339752      21.073014      39.44791     
     68000   0.9669989      20.849412      39.125245    
     69000   0.94325207     20.228835      39.174069    
     70000   1.0093948      20.178522      39.072932    
     71000   1.0180029      20.825853      39.153952    
     72000   1.0164525      20.261829      38.978395    
     73000   0.99242204     20.717387      38.890328    
     74000   0.9974365      21.66625       38.797031    
     75000   0.99042093     20.217813      38.782121    
     76000   1.0547141      20.488518      38.838445    
     77000   1.0053682      20.355775      38.865547    
     78000   0.99789035     20.15744       38.725342    
     79000   0.99060311     20.739509      38.521539    
     80000   1.0001163      20.076625      38.443892    
     81000   0.99885465     20.414426      38.548708    
     82000   1.0444153      20.400471      38.81066     
     83000   1.0027855      20.10498       38.839855    
     84000   1.0108777      20.204496      38.512333    
     85000   1.0385077      20.758617      38.263695    
     86000   1.0683828      20.741855      38.310909    
     87000   0.95193037     20.989891      38.24905     
     88000   1.0134236      20.963309      38.063741    
     89000   1.0067852      20.490454      37.970629    
     90000   0.9761865      19.795199      37.865447    
     91000   1.0497295      20.811599      38.145225    
     92000   1.0264323      20.689253      37.939938    
     93000   0.96390643     20.195868      37.959194    
     94000   0.99412075     19.543335      37.898586    
     95000   1.0061475      20.233111      37.933104    
     96000   0.9731316      21.175127      37.882732    
     97000   1.0202455      20.825038      38.050228    
     98000   0.9933161      20.355501      38.091308    
     99000   0.96747098     20.551733      37.957818    
    100000   0.98735869     20.706916      37.905119    
Loop time of 267.022 on 2 procs for 100000 steps with 601 atoms

Performance: 323568.668 tau/day, 374.501 timesteps/s
94.7% CPU use with 1 MPI tasks x 2 OpenMP threads

MPI task timing breakdown:
Section |  min time  |  avg time  |  max time  |%varavg| %total
---------------------------------------------------------------
Pair    | 0.87067    | 0.87067    | 0.87067    |   0.0 |  0.33
Bond    | 1.3837     | 1.3837     | 1.3837     |   0.0 |  0.52
Neigh   | 261.32     | 261.32     | 261.32     |   0.0 | 97.87
Comm    | 0.022665   | 0.022665   | 0.022665   |   0.0 |  0.01
Output  | 0.2504     | 0.2504     | 0.2504     |   0.0 |  0.09
Modify  | 2.9779     | 2.9779     | 2.9779     |   0.0 |  1.12
Other   |            | 0.1951     |            |       |  0.07

Nlocal:            601 ave         601 max         601 min
Histogram: 1 0 0 0 0 0 0 0 0 0
Nghost:              0 ave           0 max           0 min
Histogram: 1 0 0 0 0 0 0 0 0 0
Neighs:           5510 ave        5510 max        5510 min
Histogram: 1 0 0 0 0 0 0 0 0 0

Total # of neighbors = 5510
Ave neighs/atom = 9.1680532
Ave special neighs/atom = 1.9966722
Neighbor list builds = 1125
Dangerous builds = 0

# Replace lj potential, now collapse
pair_style      lj/cut 3

# Cutoff simul when gyration under 7
# Variable created with equal requires v_ + 'name'
fix 3 all halt 1000 v_rog < 7

run 3000000
Generated 0 of 0 mixed pair_coeff terms from geometric mixing rule
Last active /omp style is angle_style cosine/omp
Per MPI rank memory allocation (min/avg/max) = 1861 | 1861 | 1861 Mbytes
   Step          Temp         Enthalpy         c_1      
    100000   0.98735869     19.755983      37.905119    
    101000   1.0043405      19.639833      37.718455    
    102000   1.0576701      19.915549      37.304542    
    103000   1.0232491      19.599064      36.824011    
    104000   0.99824519     18.593656      36.643322    
    105000   1.0407804      19.499875      36.324847    
    106000   1.0300984      18.255911      36.004097    
    107000   1.0019433      19.472359      36.19155     
    108000   0.98123751     18.376991      36.090682    
    109000   1.026223       19.327863      35.91085     
    110000   0.95316161     18.424446      35.838422    
    111000   1.0028181      18.1275        35.677448    
    112000   0.97868237     18.533855      35.557714    
    113000   1.0209011      18.808573      35.211725    
    114000   0.99778134     17.933953      34.952074    
    115000   1.0426856      18.792043      34.784513    
    116000   0.99733672     18.544358      34.404565    
    117000   1.0536989      18.620621      33.731692    
    118000   1.0079977      18.769364      33.693897    
    119000   1.0043021      18.643811      33.737972    
    120000   1.0708576      18.964048      33.920367    
    121000   0.99407409     18.424797      33.801505    
    122000   1.0006599      18.52748       33.679389    
    123000   1.0636924      18.830227      33.607673    
    124000   0.97427947     17.798651      33.401826    
    125000   0.98620517     17.654209      33.178256    
    126000   0.99778801     18.26526       32.785082    
    127000   1.0451767      18.958552      32.533826    
    128000   0.98954503     17.907426      32.471483    
    129000   0.9603931      17.980029      32.436421    
    130000   1.005923       17.659781      32.131096    
    131000   1.00252        18.282052      32.293259    
    132000   0.94237123     18.16005       32.274172    
    133000   1.0033533      17.711776      32.262163    
    134000   0.94879174     18.126329      32.312694    
    135000   1.0264417      17.35182       32.081232    
    136000   1.0126079      17.503313      32.100477    
    137000   0.94467643     17.867319      31.840621    
    138000   0.96839332     18.52188       31.879659    
    139000   0.9682054      17.229434      31.559996    
    140000   0.99445427     17.321237      31.427379    
    141000   1.0145541      18.430898      31.569862    
    142000   1.022164       18.649562      31.441241    
    143000   0.99925642     18.557639      31.117398    
    144000   1.010165       18.627155      30.500525    
    145000   0.95471538     17.790078      30.42479     
    146000   1.0119221      17.877151      30.297178    
    147000   0.97017638     17.735283      29.930039    
    148000   1.0078124      17.855932      29.606573    
    149000   0.99721315     18.490879      29.299615    
    150000   1.020129       17.848243      29.145438    
    151000   1.0008542      18.480766      29.090426    
    152000   1.0755631      18.108233      28.713939    
    153000   0.95145952     18.057264      28.56179     
    154000   1.068385       17.999225      28.341701    
    155000   0.99468695     18.509556      28.303199    
    156000   1.0158254      17.380844      28.363801    
    157000   1.0029485      18.106063      28.355633    
    158000   1.032998       17.974728      28.288489    
    159000   1.0199036      18.304653      28.110614    
    160000   1.0148846      17.603081      27.992541    
    161000   1.0307543      17.887089      27.723292    
    162000   1.0465512      18.095451      27.728099    
    163000   1.0131502      18.322315      27.564066    
    164000   1.0048303      18.526692      27.245688    
    165000   1.0267766      17.484269      27.019096    
    166000   1.0565154      17.734125      27.162717    
    167000   1.0558625      17.930504      27.209855    
    168000   1.0351118      18.142128      27.103688    
    169000   0.98350424     18.412811      27.164979    
    170000   1.000824       18.039512      27.095456    
    171000   0.96774523     17.22316       27.101027    
    172000   0.97726012     18.421793      27.005946    
    173000   1.0010343      17.566841      26.754988    
    174000   0.99202194     17.428396      26.701343    
    175000   1.0253588      18.179239      26.334042    
    176000   1.0311643      18.22233       26.423054    
    177000   1.0604547      17.493775      26.410812    
    178000   0.94110653     18.294887      25.975244    
    179000   0.99115118     18.123187      25.492975    
    180000   1.0514056      18.142922      25.050086    
    181000   1.0278131      17.552484      25.192575    
    182000   1.0818791      17.259813      25.053842    
    183000   0.98027996     17.462381      25.07727     
    184000   0.97246612     17.995176      25.091024    
    185000   1.0052975      17.210269      25.323158    
    186000   0.97103333     18.037951      25.692581    
    187000   0.99863347     17.022881      25.538435    
    188000   0.92656251     17.511977      25.51594     
    189000   0.96262356     17.998016      25.607366    
    190000   1.0019499      17.583294      25.039095    
    191000   1.0323801      18.162348      25.031351    
    192000   0.99233988     17.868459      24.962544    
    193000   1.0345516      18.529756      25.106105    
    194000   0.95304608     17.597559      24.891048    
    195000   1.0441284      18.294725      24.54279     
    196000   0.97004031     17.266362      24.478611    
    197000   0.96153287     17.340758      24.476612    
    198000   1.0129282      17.98776       24.564337    
    199000   0.99239195     17.902456      24.23654     
    200000   1.0151486      18.321354      24.230377    
    201000   1.0651465      18.177204      24.014352    
    202000   0.98962029     18.094565      23.816617    
    203000   0.96290321     16.894711      23.588507    
    204000   0.96471428     18.002224      23.291601    
    205000   0.97069252     18.280118      23.021367    
    206000   1.0234208      17.777518      23.043966    
    207000   0.99945292     17.778554      22.552575    
    208000   0.99018166     17.663326      22.125604    
    209000   0.97699083     17.462978      22.03127     
    210000   0.93296932     17.924309      21.491222    
    211000   1.0266946      17.662784      21.154017    
    212000   0.99533367     17.65904       21.325347    
    213000   0.95674681     17.656192      21.204585    
    214000   0.96193371     17.384164      21.063211    
    215000   1.0251741      17.027276      20.808935    
    216000   1.0042469      17.402711      20.433191    
    217000   1.0181855      17.125322      20.166318    
    218000   0.99849354     17.423714      20.234877    
    219000   1.0043797      17.844164      20.523227    
    220000   1.0206756      17.21528       20.566103    
    221000   1.034163       18.336786      20.346313    
    222000   1.0280387      17.708206      20.383972    
    223000   1.0086732      17.588538      20.269103    
    224000   0.99444393     18.561388      20.159435    
    225000   1.0391585      18.225925      19.982923    
    226000   0.97834075     17.844608      20.091846    
    227000   0.98315241     18.229465      20.201503    
    228000   0.96866226     17.993282      20.275128    
    229000   1.0172177      16.84894       19.818759    
    230000   0.99600113     17.493505      19.686091    
    231000   1.0102692      18.170906      19.759358    
    232000   0.96566667     17.604675      19.509074    
    233000   1.044486       18.176834      19.501751    
    234000   0.95819716     17.720935      19.522709    
    235000   0.98309267     17.868291      19.455081    
    236000   0.97911249     17.577705      19.294586    
    237000   0.98000888     17.671943      19.263727    
    238000   0.99469142     17.384096      19.330529    
    239000   0.93425806     17.230436      19.349758    
    240000   1.0002785      17.439605      19.073105    
    241000   1.0788091      17.078342      19.223946    
    242000   0.98354143     17.478173      19.121512    
    243000   0.95913998     17.450376      19.131413    
    244000   0.97092212     18.078648      19.116239    
    245000   0.9769939      18.171196      18.972016    
    246000   0.98162043     17.083756      18.833635    
    247000   0.94458492     17.745356      18.859325    
    248000   0.98547714     17.512637      18.616631    
    249000   1.0171312      18.181094      18.433711    
    250000   0.98129485     17.375335      18.119297    
    251000   1.0070427      18.24942       17.964054    
    252000   0.96666646     16.544156      17.805845    
    253000   0.98277847     17.782727      17.52365     
    254000   0.99107956     17.557527      17.380718    
    255000   0.98072498     17.904218      17.396726    
    256000   1.0912799      17.731488      17.303091    
    257000   1.0113922      18.096307      17.251879    
    258000   1.0394575      17.845343      17.05281     
    259000   1.0206808      18.0914        16.809611    
    260000   1.01966        17.826464      16.773285    
    261000   0.99504302     17.836833      16.629159    
    262000   1.0232263      17.481344      16.565463    
    263000   0.98812146     17.136049      16.531697    
    264000   0.98310518     17.899431      16.544317    
    265000   0.96597187     17.144809      16.168906    
    266000   1.0235035      17.717282      15.75232     
    267000   1.0247581      17.880146      15.769408    
    268000   1.0132567      17.939587      15.591997    
    269000   0.99776185     17.344343      15.202582    
    270000   1.0152068      18.318703      15.090499    
    271000   1.0238215      18.135754      14.840895    
    272000   1.0354564      17.911051      14.942567    
    273000   1.0003213      17.663685      15.045016    
    274000   0.97453803     17.650883      14.888128    
    275000   1.0117892      18.490849      14.728428    
    276000   1.0385076      17.719181      14.438306    
    277000   1.0262903      17.335719      14.427336    
    278000   0.98098394     17.087296      14.157265    
    279000   1.0251528      17.469         14.229507    
    280000   0.9989717      17.666938      14.039997    
    281000   0.98409564     17.108097      13.708313    
    282000   0.96140752     17.379308      13.741078    
    283000   1.0078546      17.937413      13.561161    
    284000   0.94539328     17.2518        13.868548    
    285000   1.010657       17.582998      13.893775    
    286000   1.0268101      17.218596      13.873879    
    287000   1.0227098      17.724536      13.628143    
    288000   1.0004746      17.520401      13.39934     
    289000   0.99726351     17.784034      13.313955    
    290000   0.98760518     16.835631      13.269976    
    291000   1.0498835      16.931349      13.298901    
    292000   1.0038247      16.89774       12.99608     
    293000   1.0510864      17.538085      12.715732    
    294000   1.0281617      18.250579      12.444393    
    295000   0.94962723     17.509616      12.049453    
    296000   1.0226553      17.145213      11.876778    
    297000   0.94695107     16.975193      11.790358    
    298000   1.0280454      16.846188      11.710661    
    299000   0.95831362     17.712118      11.988074    
    300000   1.0175684      18.007745      11.935639    
    301000   1.0261376      17.206598      11.687972    
    302000   1.0399911      17.41554       11.32364     
    303000   0.97962937     17.238631      11.097945    
    304000   0.95801039     17.650555      10.79385     
    305000   0.95034795     17.667081      10.764466    
    306000   0.96470257     17.438401      10.819501    
    307000   1.0151944      17.369983      10.992811    
    308000   1.0294741      16.98958       10.922529    
    309000   1.012559       17.4275        10.606764    
    310000   1.0115807      17.429398      10.425418    
    311000   1.025531       18.107681      10.546762    
    312000   1.0500747      16.411181      10.174471    
    313000   1.0209394      17.054026      9.8389594    
    314000   0.99707628     17.351019      9.7977673    
    315000   1.008998       17.179805      9.3375612    
    316000   1.0215905      17.629746      9.2048644    
    317000   1.015904       18.007184      9.0536962    
    318000   1.0083661      17.303225      9.0636166    
    319000   1.0083997      17.412841      8.9911156    
    320000   1.0092147      17.347483      8.8847498    
    321000   0.97352379     17.328106      8.817133     
    322000   1.0739185      17.478798      8.8585596    
    323000   0.96722305     17.417889      8.6192005    
    324000   0.98851148     17.278131      8.4875613    
    325000   1.0099712      17.118973      8.1104889    
    326000   0.9574622      16.960498      7.9846277    
    327000   0.99961807     17.439934      8.1499548    
    328000   0.92561482     17.587278      7.9573848    
    329000   0.98218718     16.645441      7.5697696    
    330000   0.98730586     17.451746      7.3964365    
    331000   0.99839219     17.769897      7.5365457    
    332000   0.99826205     17.648942      7.5392395    
    333000   0.96589597     17.049509      7.3190466    
Fix halt condition for fix-id 3 met on step 334000 with value 6.999826191383329 (src/fix_halt.cpp:237)
    334000   1.0122736      16.996334      6.9998262    
Loop time of 174.24 on 2 procs for 234000 steps with 601 atoms

Performance: 1160328.444 tau/day, 1342.973 timesteps/s
117.3% CPU use with 1 MPI tasks x 2 OpenMP threads

MPI task timing breakdown:
Section |  min time  |  avg time  |  max time  |%varavg| %total
---------------------------------------------------------------
Pair    | 35.029     | 35.029     | 35.029     |   0.0 | 20.10
Bond    | 2.8335     | 2.8335     | 2.8335     |   0.0 |  1.63
Neigh   | 129.2      | 129.2      | 129.2      |   0.0 | 74.15
Comm    | 0.048412   | 0.048412   | 0.048412   |   0.0 |  0.03
Output  | 0.5162     | 0.5162     | 0.5162     |   0.0 |  0.30
Modify  | 6.2018     | 6.2018     | 6.2018     |   0.0 |  3.56
Other   |            | 0.4157     |            |       |  0.24

Nlocal:            601 ave         601 max         601 min
Histogram: 1 0 0 0 0 0 0 0 0 0
Nghost:              0 ave           0 max           0 min
Histogram: 1 0 0 0 0 0 0 0 0 0
Neighs:          85430 ave       85430 max       85430 min
Histogram: 1 0 0 0 0 0 0 0 0 0

Total # of neighbors = 85430
Ave neighs/atom = 142.14642
Ave special neighs/atom = 1.9966722
Neighbor list builds = 1881
Dangerous builds = 0

# This simulation is done
# Move onto the next one
clear
  using 2 OpenMP thread(s) per MPI task
package omp 0
using multi-threaded neighbor list subroutines
next f
jump SELF

###
# Reference paper:
# K. Kremer and G. S. Grest
# Dynamics of entangled linear polymer melts: A molecular-dynamics simulation
# J Chem Phys 92, 5057 (1990)

##################################
# MIHIR: for branched polymers
# LJ minimum first to expand and explore, then collapse
###

###
# Looping through the various N3B4 polymers to simulate,
# define variables to switch through
variable f index bb40nuc3bl10bn4d30tot100V2 bb80nuc3bl20bn4d30tot200V2 bb120nuc3bl30bn4d30tot300V2 bb160nuc3bl40bn4d30tot400V2 bb200nuc3bl50bn4d30tot500V2 bb240nuc3bl60bn4d30tot600V2 bb280nuc3bl70bn4d30tot700V2 bb320nuc3bl80bn4d30tot800V2 bb360nuc3bl90bn4d30tot900V2 bb400nuc3bl100bn4d30tot1000V2 bb440nuc3bl110bn4d30tot1100V2 bb480nuc3bl120bn4d30tot1200V2
# variable f index bb40nuc3bl10bn4d30tot100 bb80nuc3bl20bn4d30tot200 bb120nuc3bl30bn4d30tot300 bb160nuc3bl40bn4d30tot400 bb200nuc3bl50bn4d30tot500 bb240nuc3bl60bn4d30tot600 bb280nuc3bl70bn4d30tot700 bb320nuc3bl80bn4d30tot800 bb360nuc3bl90bn4d30tot900 bb400nuc3bl100bn4d30tot1000 bb440nuc3bl110bn4d30tot1100 bb480nuc3bl120bn4d30tot1200
###


###
# Box and units  (use LJ units and periodic boundaries)
###

units lj
log N3B4/trial2/logs/$f.log
log N3B4/trial2/logs/bb280nuc3bl70bn4d30tot700V2.log
