#atom_style bond #no stiffness
atom_style angle #with stiffness

boundary        p p p
###
# Pair interactions require lists of neighbours to be calculated
###

#neighbor 0.3 bin
neighbor 4 bin

neigh_modify every 1 delay 1 check yes
atom_modify sort 0 0
### Generate RESTART file, SPECIAL format, not a .txt file ###
### Useful if simulation crashes ###

restart 1000000 N3B4/trial2/restarts/$f.restart
restart 1000000 N3B4/trial2/restarts/bb320nuc3bl80bn4d30tot800V2.restart
#############################



### READ "start" data file ###

read_data N3B4/trial2/dats2/$f.dat
read_data N3B4/trial2/dats2/bb320nuc3bl80bn4d30tot800V2.dat
Reading data file ...
  orthogonal box = (-1000 -1000 -1000) to (1000 1000 1000)
  1 by 1 by 1 MPI processor grid
  reading atoms ...
  801 atoms
  scanning bonds ...
  3 = max bonds/atom
  scanning angles ...
  6 = max angles/atom
  reading bonds ...
  800 bonds
  reading angles ...
  808 angles
Finding 1-2 1-3 1-4 neighbors ...
  special bond factors lj:    0        0        0       
  special bond factors coul:  0        0        0       
     4 = max # of 1-2 neighbors
     4 = max # of 1-3 neighbors
     8 = max # of 1-4 neighbors
    12 = max # of special neighbors
  special bonds CPU = 0.002 seconds
  read_data CPU = 0.135 seconds

######################

### READ "REstart" data file ###

######################



###
# Define groups (atom type 1 is group 'all')
###
group all type 1
801 atoms in group all


###
# Dump configs - "simple dumpings"
###

###
# Dump configs + box coords
###

dump   1   all   custom   1000  N3B4/trial2/trjs/$f.lammpstrj  id  x y z  ix iy iz
dump   1   all   custom   1000  N3B4/trial2/trjs/bb320nuc3bl80bn4d30tot800V2.lammpstrj  id  x y z  ix iy iz
dump_modify   1   format line "%d %.5f %.5f %.5f %d %d %d"

########################################################################


###################################################################
# Stiffness term
#
# E = K * (1+cos(theta)), K>0
#
angle_style   cosine
#change this coefficient to change stiffness (e.g. 1,5,10)
angle_coeff   1 1.0
###################################################################

###################################################################
# Pair interaction between non-bonded atoms
#
#  Lennard-Jones 12-6 potential with cutoff:
#  potential E=4epsilon[ (sigma/r)^12 - (sigma/r)^6]  for r<r_cut
#
#  1.12246 = 2^(1/6) is the minimum of the potential


pair_style      lj/cut 1.12246152962189
#pair_style      lj/cut 3

#
#  pair_modify shift yes adds a constant to the potential such

#  that E(r_cut)=0. Forces remains unchanged.
#

pair_modify     shift yes

#
#  pair_coeff for lj/cut, specify 4:
#    * atom type interacting with
#    * atom type
#    * epsilon (energy units)
#    * sigma (distance units)
#

pair_coeff      1 1 1.0 1.0
###################################################################

###################################################################
# Pair interaction between non-bonded atoms
#
#  soft potential, for PUSHING apart overlapping atoms
#  potential E=A*(1 + cos(pi*r/r_c))
#
#  1.12246 = 2^(1/6) is the cut-off r_c

#pair_style     soft 1.12246152962189

#
#  pair_coeff for soft, specify 3:
#    * atom type interacting with
#    * atom type
#    * A
#
#

#pair_coeff      1 1 100.0
###################################################################

###################################################################
# Pair interaction between bonded atoms
#
# Fene potential + Lennard Jones 12-6:

#
#  E= - 0.5 K R0^2 ln[ 1- (r/R0)^2]
#     + 4epsilon[ (sigma/r)^12 - (sigma/r)^6] + epsilon
#

bond_style   fene


#
# For style fene, specify:
#   * bond type
#   * K (energy/distance^2)
#   * R0 (distance)
#   * epsilon (energy)  (LJ component)
#   * sigma (distance)  (LJ component)
#


special_bonds fene #<=== I M P O R T A N T (new command)
Finding 1-2 1-3 1-4 neighbors ...
  special bond factors lj:    0        1        1       
  special bond factors coul:  0        1        1       
     4 = max # of 1-2 neighbors
    12 = max # of special neighbors
  special bonds CPU = 0.001 seconds

bond_coeff   1   30   2   1.0   1.0


###################################################

###################################################################
# Pair interaction between bonded atoms
#
# Harmonic potential:
#
#  E= K * (R-R0)^2
#

#bond_style   harmonic

#
# For style harmonic, specify:
#   * bond type
#   * K (energy/distance^2)
#   * R0 (distance)
#

#bond_coeff   1   60.0   1.0
#bond_coeff   2   harmonic 0.1   1.0

###################################################
compute 1 all gyration
variable rog equal c_1
#compute 2 all coord/atom cutoff 1.1

#dump 2 all custom 10000 contact_number.dump id c_2


###
# Set up fixes
###
thermo_style   custom   step  temp enthalpy c_1
fix 1 all nve   ###NVE ensemble

fix 2 all   langevin   1.0 1.0 1.0  778655   ###Langevin integrator Tstart Tstop 1/friction rndseed


##### Sample thermodynamic info  (temperature, energy, pressure, etc.) #####
thermo 1000









############################################################################

###
# set timestep of integrator

timestep 0.01

###
# run integration for a number of steps
###
#run 0
#variable r equal c_1
#if "$r < 63.1" then "quit 1"

# lj potential minimum, cause molecule to explore
run 100000
Generated 0 of 0 mixed pair_coeff terms from geometric mixing rule
Last active /omp style is angle_style cosine/omp
Neighbor list info ...
  update: every = 1 steps, delay = 1 steps, check = yes
  max neighbors/atom: 2000, page size: 100000
  master list distance cutoff = 5.1224615
  ghost atom cutoff = 5.1224615
  binsize = 2.5612308, bins = 781 781 781
  1 neighbor lists, perpetual/occasional/extra = 1 0 0
  (1) pair lj/cut/omp, perpetual
      attributes: half, newton on, omp
      pair build: half/bin/newton/omp
      stencil: half/bin/3d
      bin: standard
WARNING: Communication cutoff 5.12246152962189 is shorter than a bond length based estimate of 5.455. This may lead to errors. (src/comm.cpp:723)
Per MPI rank memory allocation (min/avg/max) = 1862 | 1862 | 1862 Mbytes
   Step          Temp         Enthalpy         c_1      
         0   0              13.250727      67.0588      
      1000   1.0295351      18.447164      66.244164    
      2000   0.92741214     19.063933      65.473652    
      3000   1.0298906      18.922166      64.881952    
      4000   0.96668362     18.902232      64.141972    
      5000   0.98407996     19.712003      63.274713    
      6000   0.99695466     19.441679      62.727844    
      7000   1.0374497      19.603274      62.477272    
      8000   1.0676232      19.628048      62.060798    
      9000   1.0259641      19.806716      61.7042      
     10000   1.0208732      20.025875      61.014958    
     11000   1.0438796      20.185555      60.85939     
     12000   1.0079533      19.559613      60.754987    
     13000   1.0048025      20.141553      60.305322    
     14000   1.0015451      19.459274      60.224347    
     15000   1.0394994      20.539108      59.821799    
     16000   0.98560019     20.011293      59.566833    
     17000   0.98937095     19.777584      59.258602    
     18000   0.96914787     19.899536      59.030946    
     19000   0.99576552     20.141286      58.814885    
     20000   1.0146083      20.160214      58.627003    
     21000   0.97208619     20.231344      58.328502    
     22000   1.044948       19.795314      58.290017    
     23000   0.97974927     20.219398      57.953168    
     24000   0.96126618     19.803982      57.368192    
     25000   1.0286482      20.418726      57.142251    
     26000   1.0487738      20.204152      57.112132    
     27000   0.9899622      20.694337      57.01757     
     28000   0.97482331     20.441796      56.67812     
     29000   1.0326526      20.084449      56.478185    
     30000   1.0040118      19.949296      56.258631    
     31000   1.0093802      20.274181      56.087179    
     32000   1.0071366      20.268589      55.77822     
     33000   0.98738812     20.105773      56.02257     
     34000   1.0451085      20.076089      55.917847    
     35000   1.0391031      19.829305      56.122158    
     36000   0.99428285     20.205183      55.655739    
     37000   1.0589202      20.484032      55.600379    
     38000   0.9825119      20.152339      55.108967    
     39000   0.98084413     20.432928      55.055009    
     40000   0.97547639     20.448301      55.138141    
     41000   1.0430442      20.266636      54.984698    
     42000   0.99518142     20.284236      54.910583    
     43000   1.0533353      20.493618      55.046881    
     44000   0.97547937     20.022679      55.103733    
     45000   1.029466       20.110968      55.006473    
     46000   0.99196069     20.492221      54.593903    
     47000   0.99739553     20.216451      54.504395    
     48000   0.94725623     20.757288      54.360061    
     49000   0.9835595      20.320171      54.418284    
     50000   1.0124676      20.402691      54.364364    
     51000   1.0173066      20.271921      53.947138    
     52000   0.9874259      20.159059      53.798204    
     53000   0.99168048     20.354957      53.698595    
     54000   1.0085576      20.383474      53.369973    
     55000   0.97289372     20.164112      53.152645    
     56000   0.92424636     19.790829      53.431601    
     57000   1.0081749      20.874367      53.34872     
     58000   1.0139982      20.111038      53.059147    
     59000   0.9460718      20.148583      53.004895    
     60000   1.0251227      20.637356      52.937703    
     61000   0.99805632     20.658369      52.68336     
     62000   0.9731035      19.940351      52.8581      
     63000   1.0296745      20.107594      52.665935    
     64000   0.94800292     20.186797      52.815374    
     65000   1.0276079      20.239147      52.630735    
     66000   0.93262877     20.28351       52.540376    
     67000   0.98483358     19.865544      52.192167    
     68000   0.99624951     20.661926      52.231302    
     69000   0.9694518      19.83913       52.187841    
     70000   0.97009584     19.990666      52.296435    
     71000   0.99633921     21.045249      52.161287    
     72000   0.95388974     20.394595      51.842461    
     73000   0.9590221      20.561898      51.681243    
     74000   1.002561       21.140167      51.753257    
     75000   0.98371508     20.422282      51.690921    
     76000   0.97276481     20.33387       51.625619    
     77000   1.031657       20.775468      51.589511    
     78000   1.0070799      19.962258      51.293051    
     79000   1.0096568      20.96545       51.375682    
     80000   0.99426174     19.941696      51.24106     
     81000   1.0156041      20.439872      51.341877    
     82000   1.0513002      20.430289      51.260453    
     83000   0.96440117     20.690914      50.891681    
     84000   1.0044548      20.377158      50.627078    
     85000   1.0459038      21.162009      50.530765    
     86000   1.0426819      20.724493      50.29531     
     87000   1.0368444      20.190431      50.17333     
     88000   1.0102922      19.965583      49.875108    
     89000   0.98306103     20.525394      49.588191    
     90000   1.0118306      20.248389      49.487805    
     91000   0.97541619     20.46905       49.609478    
     92000   0.98238808     20.130534      49.357531    
     93000   1.0131454      20.873297      49.374898    
     94000   0.98402705     20.16445       49.297258    
     95000   0.97053479     20.380564      48.947884    
     96000   1.0176136      20.511042      48.822857    
     97000   0.97473131     20.630179      49.008179    
     98000   1.0285029      21.006472      48.632972    
     99000   1.0228533      20.772479      48.517055    
    100000   0.99422316     20.729672      48.456776    
Loop time of 199.657 on 2 procs for 100000 steps with 801 atoms

Performance: 432741.993 tau/day, 500.859 timesteps/s
95.7% CPU use with 1 MPI tasks x 2 OpenMP threads

MPI task timing breakdown:
Section |  min time  |  avg time  |  max time  |%varavg| %total
---------------------------------------------------------------
Pair    | 0.87319    | 0.87319    | 0.87319    |   0.0 |  0.44
Bond    | 1.4743     | 1.4743     | 1.4743     |   0.0 |  0.74
Neigh   | 193.48     | 193.48     | 193.48     |   0.0 | 96.91
Comm    | 0.021642   | 0.021642   | 0.021642   |   0.0 |  0.01
Output  | 0.24847    | 0.24847    | 0.24847    |   0.0 |  0.12
Modify  | 3.3482     | 3.3482     | 3.3482     |   0.0 |  1.68
Other   |            | 0.2131     |            |       |  0.11

Nlocal:            801 ave         801 max         801 min
Histogram: 1 0 0 0 0 0 0 0 0 0
Nghost:              0 ave           0 max           0 min
Histogram: 1 0 0 0 0 0 0 0 0 0
Neighs:           6349 ave        6349 max        6349 min
Histogram: 1 0 0 0 0 0 0 0 0 0

Total # of neighbors = 6349
Ave neighs/atom = 7.9263421
Ave special neighs/atom = 1.9975031
Neighbor list builds = 1144
Dangerous builds = 0

# Replace lj potential, now collapse
pair_style      lj/cut 3

# Cutoff simul when gyration under 7
# Variable created with equal requires v_ + 'name'
fix 3 all halt 1000 v_rog < 7

run 3000000
Generated 0 of 0 mixed pair_coeff terms from geometric mixing rule
Last active /omp style is angle_style cosine/omp
Per MPI rank memory allocation (min/avg/max) = 1862 | 1862 | 1862 Mbytes
   Step          Temp         Enthalpy         c_1      
    100000   0.99422316     19.936921      48.456776    
    101000   0.97940082     19.603774      48.162207    
    102000   0.99428114     19.704424      48.046846    
    103000   0.99186404     19.882905      47.817594    
    104000   1.0079715      19.560116      47.553002    
    105000   0.97004721     19.421481      47.484533    
    106000   0.99117056     19.313429      47.231562    
    107000   1.0430574      19.254413      46.909111    
    108000   1.0036941      19.967983      46.89439     
    109000   1.0300144      19.734932      46.72026     
    110000   1.0151432      19.565281      46.393204    
    111000   1.0500718      19.161114      46.270432    
    112000   0.98886856     19.27162       45.889335    
    113000   0.97166178     18.68842       45.633399    
    114000   0.99118011     19.516488      45.244356    
    115000   0.98764246     19.24532       45.330399    
    116000   0.99736559     18.916916      45.080781    
    117000   0.99404106     19.217231      45.07891     
    118000   1.0249763      18.522614      44.923921    
    119000   1.0191726      18.567958      44.428383    
    120000   1.0160577      19.150293      44.15382     
    121000   1.0465329      18.889653      44.009018    
    122000   1.0196889      19.176526      43.937923    
    123000   1.0201963      18.91511       43.47434     
    124000   0.91604529     18.102673      43.157357    
    125000   1.0290023      18.869146      42.998769    
    126000   1.0043498      18.319555      42.664334    
    127000   0.97752773     18.388011      42.312283    
    128000   1.0579563      18.771605      42.059306    
    129000   1.0388329      18.578033      41.818538    
    130000   0.979556       18.18659       41.930373    
    131000   1.0230892      18.490729      41.833246    
    132000   0.99445011     18.437753      41.423129    
    133000   0.98354208     18.067064      41.378131    
    134000   1.0084697      18.203664      41.190804    
    135000   0.98891791     18.416712      41.492378    
    136000   1.0426272      18.257575      41.224467    
    137000   1.0881276      17.847293      41.066461    
    138000   0.99182147     18.197289      41.0431      
    139000   0.97662277     18.714264      41.068612    
    140000   0.97320729     18.583461      40.980409    
    141000   0.97677932     18.362293      40.64772     
    142000   0.96987642     18.261414      40.517698    
    143000   1.0056818      18.642692      40.120352    
    144000   1.0120153      18.157331      40.04435     
    145000   1.0420573      17.718339      39.980785    
    146000   1.0532217      17.817614      39.884559    
    147000   0.96841152     16.936201      39.714666    
    148000   0.99509015     18.862477      39.620033    
    149000   1.0216086      18.338022      39.609744    
    150000   0.99489325     18.061323      39.132542    
    151000   0.96659731     18.087782      39.288714    
    152000   0.96800088     17.620925      39.343016    
    153000   0.95387304     18.106442      39.201368    
    154000   1.0056827      18.428908      38.901139    
    155000   0.97762748     17.706551      38.920363    
    156000   1.0284164      18.460523      38.633471    
    157000   0.98109256     17.471092      38.430243    
    158000   1.0033943      17.414631      38.168346    
    159000   0.9848282      17.62475       37.911804    
    160000   0.98235697     18.010296      37.764053    
    161000   1.0428099      17.555209      37.391423    
    162000   1.0530928      17.39585       37.384992    
    163000   0.96847697     17.471781      37.333894    
    164000   1.0423721      17.260422      37.263168    
    165000   0.99204647     17.533277      37.341316    
    166000   0.98098572     17.327287      37.341398    
    167000   0.98212926     17.810572      37.079492    
    168000   1.030923       17.417609      36.814007    
    169000   1.0048123      18.238565      36.777207    
    170000   0.98465373     17.135262      36.679144    
    171000   0.96565442     17.464561      36.586968    
    172000   1.0441533      18.753469      36.214476    
    173000   1.0053675      18.56604       35.933742    
    174000   1.0072854      17.387339      35.979925    
    175000   1.0007762      17.758078      35.803395    
    176000   1.0260821      18.0147        35.542163    
    177000   0.99566068     17.663698      35.542612    
    178000   1.015811       17.655342      35.374377    
    179000   1.0189697      17.511758      35.244207    
    180000   1.014742       17.336153      35.104009    
    181000   0.99392504     17.192845      34.902578    
    182000   0.98648296     17.15969       34.529851    
    183000   0.97577574     17.347111      34.382532    
    184000   0.98573626     18.090125      34.462495    
    185000   1.0344501      17.988229      34.572889    
    186000   1.0270473      17.639975      34.49583     
    187000   1.0017234      17.912637      34.479558    
    188000   1.025934       17.667424      34.187574    
    189000   1.0209741      18.077696      34.139231    
    190000   0.98540043     17.251823      33.890723    
    191000   0.97819654     17.939772      33.927093    
    192000   1.0149728      17.647037      33.870088    
    193000   0.99192191     17.780741      33.576962    
    194000   0.99161569     17.663246      33.814145    
    195000   1.0290059      17.112504      33.803118    
    196000   0.98647694     17.348323      33.903114    
    197000   1.0137882      17.971936      33.800254    
    198000   0.97994149     17.658598      33.670412    
    199000   1.038001       18.166851      33.735864    
    200000   1.0191822      17.401544      33.466199    
    201000   0.98646084     17.372589      33.251646    
    202000   0.96001934     18.004436      33.196719    
    203000   0.9933069      17.360569      33.213332    
    204000   0.9937321      17.649756      33.021722    
    205000   0.97827228     18.038447      32.819527    
    206000   1.0284773      17.939413      32.518478    
    207000   1.0233923      17.354484      32.551434    
    208000   0.95476927     17.528521      32.31849     
    209000   0.99649046     17.405029      32.023016    
    210000   0.96706382     17.387591      31.772421    
    211000   0.99323788     17.736082      31.689886    
    212000   1.0338502      17.994568      31.54368     
    213000   1.0168006      17.482271      31.084728    
    214000   0.95188354     18.072072      30.750404    
    215000   0.98782342     17.191256      30.594061    
    216000   0.97248671     18.121823      30.609519    
    217000   1.0053913      17.540633      30.79901     
    218000   1.0153559      18.000675      30.818997    
    219000   1.0487566      17.863484      30.894604    
    220000   0.96330139     18.115027      30.699241    
    221000   0.98563136     17.9984        30.576382    
    222000   1.0070189      17.053655      30.718932    
    223000   1.0133292      18.024995      30.960245    
    224000   1.0112351      17.346933      31.021393    
    225000   1.0423921      17.795635      31.205033    
    226000   1.0352475      18.078019      31.091802    
    227000   0.99619668     17.689418      31.026774    
    228000   1.0116694      17.763868      31.087815    
    229000   1.0041382      17.661674      30.947223    
    230000   1.0798975      17.565387      31.041486    
    231000   0.9902995      17.654794      30.914406    
    232000   0.97138171     17.73253       30.861021    
    233000   0.98668719     18.114161      30.878715    
    234000   1.018892       17.461823      30.833609    
    235000   0.94059744     17.538675      30.585536    
    236000   0.95093195     17.609485      30.349966    
    237000   1.0093093      17.361175      30.135045    
    238000   0.9946327      17.906388      30.191578    
    239000   1.0285892      18.028401      30.019565    
    240000   1.0102049      17.536295      29.700591    
    241000   0.99584401     17.664249      29.482855    
    242000   1.016386       18.079485      29.311624    
    243000   0.98401829     17.335515      29.320964    
    244000   0.98082325     17.216846      29.206317    
    245000   1.0074173      18.607973      29.219421    
    246000   0.95588429     18.125102      28.945066    
    247000   0.99814739     17.968205      28.86675     
    248000   0.99024573     17.989869      28.644395    
    249000   1.0101684      17.715761      28.804775    
    250000   0.97493445     18.245194      28.728226    
    251000   0.96391315     17.127423      28.450572    
    252000   0.98553719     17.935757      28.651063    
    253000   0.98603794     17.401804      28.359505    
    254000   1.0095768      18.059402      28.341647    
    255000   1.0194462      17.866966      28.217518    
    256000   0.94736831     17.655038      27.927164    
    257000   0.96733836     17.497556      27.655522    
    258000   1.0135809      17.369796      27.254394    
    259000   0.99679827     17.556147      27.078282    
    260000   1.0102803      17.172615      27.131117    
    261000   1.0211887      18.002266      27.210916    
    262000   1.0373869      17.677925      27.087759    
    263000   1.0007535      17.598123      27.023734    
    264000   0.95464757     17.397473      26.963892    
    265000   1.0305514      18.20351       26.896801    
    266000   0.99313679     17.702944      26.830987    
    267000   1.0559831      17.542511      26.840278    
    268000   1.0006695      17.337574      26.522083    
    269000   1.0088829      17.735664      26.642129    
    270000   0.95971626     17.270637      26.800776    
    271000   1.0181185      17.855889      26.753888    
    272000   0.99119994     18.000016      26.571602    
    273000   1.0365669      17.348502      26.501137    
    274000   0.97536789     17.572412      26.357825    
    275000   1.0341959      17.312104      26.394946    
    276000   1.0344183      17.799581      26.325616    
    277000   0.9845796      17.741735      26.232836    
    278000   0.99123487     17.080231      26.133187    
    279000   1.0166639      17.717581      25.990756    
    280000   1.0370694      17.37756       25.927118    
    281000   1.0175775      17.348014      25.800043    
    282000   1.0085409      18.038106      25.554726    
    283000   0.97320796     17.8261        25.451169    
    284000   1.0233996      17.509837      25.460485    
    285000   0.95600313     17.122391      25.503895    
    286000   0.94988448     17.916981      25.436613    
    287000   0.95153543     17.520856      24.941576    
    288000   1.0032035      17.46319       24.873766    
    289000   0.99708847     16.812378      24.779691    
    290000   0.99022801     17.68661       24.579547    
    291000   1.0198869      17.124978      24.508977    
    292000   0.96115802     17.513678      24.410039    
    293000   1.0594343      18.409428      24.362914    
    294000   1.006883       17.812096      24.221107    
    295000   0.97689987     17.189673      24.151782    
    296000   0.97597515     17.48642       23.81229     
    297000   1.0027679      17.576964      23.504393    
    298000   0.98836577     17.285576      23.359444    
    299000   1.0346627      17.795024      23.126788    
    300000   1.016884       17.685259      23.117892    
    301000   1.0133806      16.584405      23.060084    
    302000   1.0217904      17.398228      22.617203    
    303000   0.99089849     17.835082      22.475595    
    304000   0.96699513     17.750155      22.284851    
    305000   0.98153517     16.762339      22.254927    
    306000   1.0063742      17.769025      22.284989    
    307000   0.97632315     17.194113      22.183559    
    308000   1.006083       17.562296      22.124827    
    309000   1.0148747      17.641463      22.00414     
    310000   1.0421341      18.025186      21.819871    
    311000   0.99838121     17.786249      21.825232    
    312000   0.98294566     17.537755      22.024079    
    313000   1.0236747      17.018053      21.703616    
    314000   0.9946767      17.765429      21.542086    
    315000   1.0229708      17.494382      21.479753    
    316000   0.99063305     16.834597      21.380359    
    317000   0.99980377     17.523423      21.208003    
    318000   0.97668968     17.735182      21.230624    
    319000   1.0017254      17.778316      21.225608    
    320000   0.98233879     17.850434      21.081421    
    321000   0.95414726     17.475338      21.119186    
    322000   0.99665337     17.690918      20.862468    
    323000   0.98583634     17.182711      20.759232    
    324000   1.0157157      17.869694      20.832643    
    325000   1.0468075      17.436988      20.685658    
    326000   1.0205002      17.395239      20.469977    
    327000   1.0674178      17.119523      20.511153    
    328000   1.0028521      17.702899      20.816806    
    329000   0.95468792     17.684197      20.51879     
    330000   0.9774569      17.53926       20.503496    
    331000   0.97815698     17.119364      20.385828    
    332000   1.0579384      17.535896      20.218557    
    333000   0.987992       17.483446      19.899663    
    334000   0.97171016     17.581896      19.767208    
    335000   1.00474        17.584213      19.5456      
    336000   1.0449381      17.954671      19.467935    
    337000   0.99609675     17.325686      19.391335    
    338000   0.99139174     17.591917      19.534044    
    339000   1.035845       17.109203      19.324278    
    340000   0.99580926     17.307206      19.099929    
    341000   1.0374788      17.692063      18.674277    
    342000   0.99178976     17.543372      18.788189    
    343000   0.97676463     17.63816       18.77124     
    344000   0.99842716     17.441836      18.738808    
    345000   0.97947964     17.905094      18.453898    
    346000   0.97736127     18.178179      18.506414    
    347000   0.99355527     17.078668      18.336997    
    348000   1.0448435      17.68221       18.203287    
    349000   1.0428134      18.130847      18.013231    
    350000   0.99527288     17.239149      17.884282    
    351000   0.98314777     17.532422      17.753911    
    352000   1.0503242      17.794569      17.492086    
    353000   1.000049       17.864831      17.330302    
    354000   0.99484611     17.993815      17.179458    
    355000   0.98279155     17.578917      17.086839    
    356000   1.0377808      16.967228      17.094994    
    357000   0.99869983     17.324514      16.976463    
    358000   0.9947134      17.757429      16.920414    
    359000   0.9694195      17.512011      16.974847    
    360000   0.99613256     17.40387       16.649286    
    361000   0.98079741     17.531496      16.411126    
    362000   1.0023587      17.212394      16.319281    
    363000   1.0276805      17.412432      16.1597      
    364000   1.0488652      17.51309       15.887684    
    365000   0.96899609     17.85469       16.108814    
    366000   0.97118832     18.15189       16.049949    
    367000   1.0030682      17.450801      15.983632    
    368000   0.99835499     17.509167      15.976355    
    369000   1.026558       17.262982      15.778968    
    370000   1.0587554      18.096585      15.597366    
    371000   0.98573199     17.249583      15.544682    
    372000   1.0220412      17.526276      15.359081    
    373000   1.0391211      17.987428      15.265082    
    374000   1.0216582      17.477939      15.098918    
    375000   0.98995039     17.024907      15.03316     
    376000   1.0399463      17.207229      14.88759     
    377000   0.97044909     16.836719      14.770447    
    378000   1.0303076      17.395713      14.795287    
    379000   0.99255176     17.356446      14.83161     
    380000   0.96070758     17.482866      14.616774    
    381000   1.0003349      17.112761      14.525579    
    382000   1.0254668      17.189256      14.401664    
    383000   0.97691273     16.457848      14.181319    
    384000   1.0071289      16.537335      14.082207    
    385000   0.99610704     17.26045       14.188671    
    386000   0.97544015     16.525865      14.584954    
    387000   0.97386935     17.324201      14.377775    
    388000   0.99039921     17.384092      14.140767    
    389000   0.99023857     16.927559      14.082249    
    390000   1.0434259      17.000448      14.025496    
    391000   0.94580397     16.785798      14.00767     
    392000   0.96735394     17.930483      14.231444    
    393000   0.99041673     17.512321      14.007603    
    394000   0.97695743     17.303384      13.794782    
    395000   1.0071241      17.016866      13.801909    
    396000   0.98145753     17.364718      13.716217    
    397000   1.0416583      17.34759       13.560975    
    398000   0.99111532     17.557216      13.509611    
    399000   0.98374798     17.552672      13.534886    
    400000   0.97628774     16.851492      13.241602    
    401000   1.0225955      17.575819      13.105746    
    402000   0.98235394     17.290094      12.754252    
    403000   1.0176528      16.915172      12.772683    
    404000   0.95924283     16.451708      12.696804    
    405000   1.001329       17.068623      12.705943    
    406000   0.99502688     17.283297      12.529994    
    407000   0.99473791     16.890189      12.693338    
    408000   0.9798912      17.244425      12.478935    
    409000   1.0278529      16.55855       12.34017     
    410000   1.0259523      18.193219      12.458838    
    411000   0.9891591      16.69062       12.356928    
    412000   0.96005136     17.368377      12.399708    
    413000   0.98621613     16.622394      12.364937    
    414000   1.0044372      16.909313      12.587127    
    415000   0.99215961     17.031837      12.641182    
    416000   0.99611255     16.712913      12.686133    
    417000   0.97952407     17.436614      12.574523    
    418000   0.94483748     17.061506      12.66953     
    419000   0.93908789     16.125704      12.588811    
    420000   1.006786       17.711344      12.623619    
    421000   1.0713798      17.483872      12.518002    
    422000   1.0333564      17.291836      12.573455    
    423000   1.0230311      17.364392      12.293293    
    424000   0.99911058     17.01617       12.159561    
    425000   1.0032781      17.238436      12.1791      
    426000   0.98634065     17.339598      12.192566    
    427000   0.9691981      16.481517      11.988003    
    428000   1.0212428      17.059151      12.125932    
    429000   0.99171039     17.758924      12.016733    
    430000   0.98016586     17.137811      11.96715     
    431000   1.0034618      17.100974      11.778215    
    432000   0.97354403     16.769491      11.653099    
    433000   1.007142       17.749179      11.650584    
    434000   0.97629955     17.031528      11.411712    
    435000   1.0372291      16.739852      11.080379    
    436000   0.93236444     17.039615      11.096091    
    437000   0.99413645     17.803106      11.11476     
    438000   1.0320828      17.283377      10.983374    
    439000   1.0290443      17.092191      10.835347    
    440000   1.0002946      18.103626      10.849614    
    441000   0.99712361     16.909569      10.475477    
    442000   1.0217224      17.82518       10.409155    
    443000   1.0081401      17.429298      10.35484     
    444000   1.0088379      17.531993      10.283466    
    445000   1.0283095      17.408134      10.324153    
    446000   0.98880393     17.17201       9.9082146    
    447000   1.005558       17.573309      9.7030501    
    448000   0.98545304     16.922451      9.721981     
    449000   1.0083657      18.159366      9.6232708    
    450000   0.96469243     17.56484       9.5333403    
    451000   1.0075832      16.348464      9.5084328    
    452000   1.0374013      17.416369      9.615127     
    453000   0.98183535     17.297808      9.6286106    
    454000   1.0044733      17.128514      9.7011199    
    455000   1.0138378      16.958444      9.6401046    
    456000   1.0487419      18.251644      9.4669155    
    457000   1.0250882      17.939051      9.5065188    
    458000   1.0454359      17.153693      9.329129     
    459000   1.0100578      17.160902      9.4712683    
    460000   0.97350626     17.013917      9.3441711    
    461000   1.0182932      17.008057      9.4105406    
    462000   0.97284521     17.864901      9.2050498    
    463000   0.94096685     16.753543      9.0299512    
    464000   0.97927501     17.563111      8.9031169    
    465000   1.0232053      17.424896      8.902746     
    466000   0.95833787     16.937801      8.9668146    
    467000   1.0029595      17.391492      8.8272425    
    468000   0.98627941     17.064252      9.1197406    
    469000   1.0123141      16.269703      8.7885115    
    470000   1.0248089      17.097544      8.9905403    
    471000   1.0003695      16.940965      8.8606806    
    472000   1.0243742      17.333989      8.7657422    
    473000   0.94067792     17.109544      8.7374991    
    474000   1.0251035      17.360053      8.8632134    
    475000   0.96030154     17.187561      8.873731     
    476000   0.96147738     17.037079      8.8326508    
    477000   0.99355641     17.329511      8.6672777    
    478000   1.0054746      16.914292      8.5020306    
    479000   0.9900234      17.287527      8.3350951    
    480000   1.0103175      17.147124      8.2857811    
    481000   1.0083008      18.032062      8.3527575    
    482000   0.99391211     16.941198      8.3049745    
    483000   1.0275704      17.206337      8.3151615    
    484000   0.97445462     17.328         8.1485014    
    485000   0.94821791     16.934743      8.2006832    
    486000   1.0061328      17.615544      8.1379187    
    487000   0.96998629     17.268346      7.9394388    
    488000   1.0321151      18.071324      7.9515695    
    489000   1.038701       16.790828      8.1540317    
    490000   0.99196196     17.336344      8.23161      
    491000   1.0358833      17.629839      8.1569412    
    492000   0.985505       17.492824      7.9625595    
    493000   0.9887985      16.95952       7.7823925    
    494000   1.0076125      17.764888      7.9227206    
    495000   1.0114296      17.706185      7.5081082    
    496000   0.97895143     17.271385      7.4644147    
    497000   0.96924466     16.853288      7.480177     
    498000   1.0210617      17.232029      7.4625177    
    499000   0.9651891      16.598844      7.2728381    
    500000   1.0112619      17.298126      7.1781717    
    501000   0.97852954     16.711122      7.1013233    
Fix halt condition for fix-id 3 met on step 502000 with value 6.864129284526252 (src/fix_halt.cpp:237)
    502000   1.0005917      16.427076      6.8641293    
Loop time of 339.898 on 2 procs for 402000 steps with 801 atoms

Performance: 1021860.087 tau/day, 1182.708 timesteps/s
125.1% CPU use with 1 MPI tasks x 2 OpenMP threads

MPI task timing breakdown:
Section |  min time  |  avg time  |  max time  |%varavg| %total
---------------------------------------------------------------
Pair    | 94.728     | 94.728     | 94.728     |   0.0 | 27.87
Bond    | 6.1676     | 6.1676     | 6.1676     |   0.0 |  1.81
Neigh   | 223.07     | 223.07     | 223.07     |   0.0 | 65.63
Comm    | 0.096713   | 0.096713   | 0.096713   |   0.0 |  0.03
Output  | 1.0178     | 1.0178     | 1.0178     |   0.0 |  0.30
Modify  | 13.858     | 13.858     | 13.858     |   0.0 |  4.08
Other   |            | 0.9554     |            |       |  0.28

Nlocal:            801 ave         801 max         801 min
Histogram: 1 0 0 0 0 0 0 0 0 0
Nghost:              0 ave           0 max           0 min
Histogram: 1 0 0 0 0 0 0 0 0 0
Neighs:         144743 ave      144743 max      144743 min
Histogram: 1 0 0 0 0 0 0 0 0 0

Total # of neighbors = 144743
Ave neighs/atom = 180.70287
Ave special neighs/atom = 1.9975031
Neighbor list builds = 3299
Dangerous builds = 0

# This simulation is done
# Move onto the next one
clear
  using 2 OpenMP thread(s) per MPI task
package omp 0
using multi-threaded neighbor list subroutines
next f
jump SELF

###
# Reference paper:
# K. Kremer and G. S. Grest
# Dynamics of entangled linear polymer melts: A molecular-dynamics simulation
# J Chem Phys 92, 5057 (1990)

##################################
# MIHIR: for branched polymers
# LJ minimum first to expand and explore, then collapse
###

###
# Looping through the various N3B4 polymers to simulate,
# define variables to switch through
variable f index bb40nuc3bl10bn4d30tot100V2 bb80nuc3bl20bn4d30tot200V2 bb120nuc3bl30bn4d30tot300V2 bb160nuc3bl40bn4d30tot400V2 bb200nuc3bl50bn4d30tot500V2 bb240nuc3bl60bn4d30tot600V2 bb280nuc3bl70bn4d30tot700V2 bb320nuc3bl80bn4d30tot800V2 bb360nuc3bl90bn4d30tot900V2 bb400nuc3bl100bn4d30tot1000V2 bb440nuc3bl110bn4d30tot1100V2 bb480nuc3bl120bn4d30tot1200V2
# variable f index bb40nuc3bl10bn4d30tot100 bb80nuc3bl20bn4d30tot200 bb120nuc3bl30bn4d30tot300 bb160nuc3bl40bn4d30tot400 bb200nuc3bl50bn4d30tot500 bb240nuc3bl60bn4d30tot600 bb280nuc3bl70bn4d30tot700 bb320nuc3bl80bn4d30tot800 bb360nuc3bl90bn4d30tot900 bb400nuc3bl100bn4d30tot1000 bb440nuc3bl110bn4d30tot1100 bb480nuc3bl120bn4d30tot1200
###


###
# Box and units  (use LJ units and periodic boundaries)
###

units lj
log N3B4/trial2/logs/$f.log
log N3B4/trial2/logs/bb360nuc3bl90bn4d30tot900V2.log
