#atom_style bond #no stiffness
atom_style angle #with stiffness

boundary        p p p
###
# Pair interactions require lists of neighbours to be calculated
###

#neighbor 0.3 bin
neighbor 4 bin

neigh_modify every 1 delay 1 check yes
atom_modify sort 0 0
### Generate RESTART file, SPECIAL format, not a .txt file ###
### Useful if simulation crashes ###

restart 1000000 N3B4/trial2/restarts/$f.restart
restart 1000000 N3B4/trial2/restarts/bb400nuc3bl100bn4d30tot1000V2.restart
#############################



### READ "start" data file ###

read_data N3B4/trial2/dats2/$f.dat
read_data N3B4/trial2/dats2/bb400nuc3bl100bn4d30tot1000V2.dat
Reading data file ...
  orthogonal box = (-1000 -1000 -1000) to (1000 1000 1000)
  1 by 1 by 1 MPI processor grid
  reading atoms ...
  1001 atoms
  scanning bonds ...
  3 = max bonds/atom
  scanning angles ...
  6 = max angles/atom
  reading bonds ...
  1000 bonds
  reading angles ...
  1008 angles
Finding 1-2 1-3 1-4 neighbors ...
  special bond factors lj:    0        0        0       
  special bond factors coul:  0        0        0       
     4 = max # of 1-2 neighbors
     4 = max # of 1-3 neighbors
     8 = max # of 1-4 neighbors
    12 = max # of special neighbors
  special bonds CPU = 0.002 seconds
  read_data CPU = 0.162 seconds

######################

### READ "REstart" data file ###

######################



###
# Define groups (atom type 1 is group 'all')
###
group all type 1
1001 atoms in group all


###
# Dump configs - "simple dumpings"
###

###
# Dump configs + box coords
###

dump   1   all   custom   1000  N3B4/trial2/trjs/$f.lammpstrj  id  x y z  ix iy iz
dump   1   all   custom   1000  N3B4/trial2/trjs/bb400nuc3bl100bn4d30tot1000V2.lammpstrj  id  x y z  ix iy iz
dump_modify   1   format line "%d %.5f %.5f %.5f %d %d %d"

########################################################################


###################################################################
# Stiffness term
#
# E = K * (1+cos(theta)), K>0
#
angle_style   cosine
#change this coefficient to change stiffness (e.g. 1,5,10)
angle_coeff   1 1.0
###################################################################

###################################################################
# Pair interaction between non-bonded atoms
#
#  Lennard-Jones 12-6 potential with cutoff:
#  potential E=4epsilon[ (sigma/r)^12 - (sigma/r)^6]  for r<r_cut
#
#  1.12246 = 2^(1/6) is the minimum of the potential


pair_style      lj/cut 1.12246152962189
#pair_style      lj/cut 3

#
#  pair_modify shift yes adds a constant to the potential such

#  that E(r_cut)=0. Forces remains unchanged.
#

pair_modify     shift yes

#
#  pair_coeff for lj/cut, specify 4:
#    * atom type interacting with
#    * atom type
#    * epsilon (energy units)
#    * sigma (distance units)
#

pair_coeff      1 1 1.0 1.0
###################################################################

###################################################################
# Pair interaction between non-bonded atoms
#
#  soft potential, for PUSHING apart overlapping atoms
#  potential E=A*(1 + cos(pi*r/r_c))
#
#  1.12246 = 2^(1/6) is the cut-off r_c

#pair_style     soft 1.12246152962189

#
#  pair_coeff for soft, specify 3:
#    * atom type interacting with
#    * atom type
#    * A
#
#

#pair_coeff      1 1 100.0
###################################################################

###################################################################
# Pair interaction between bonded atoms
#
# Fene potential + Lennard Jones 12-6:

#
#  E= - 0.5 K R0^2 ln[ 1- (r/R0)^2]
#     + 4epsilon[ (sigma/r)^12 - (sigma/r)^6] + epsilon
#

bond_style   fene


#
# For style fene, specify:
#   * bond type
#   * K (energy/distance^2)
#   * R0 (distance)
#   * epsilon (energy)  (LJ component)
#   * sigma (distance)  (LJ component)
#


special_bonds fene #<=== I M P O R T A N T (new command)
Finding 1-2 1-3 1-4 neighbors ...
  special bond factors lj:    0        1        1       
  special bond factors coul:  0        1        1       
     4 = max # of 1-2 neighbors
    12 = max # of special neighbors
  special bonds CPU = 0.001 seconds

bond_coeff   1   30   2   1.0   1.0


###################################################

###################################################################
# Pair interaction between bonded atoms
#
# Harmonic potential:
#
#  E= K * (R-R0)^2
#

#bond_style   harmonic

#
# For style harmonic, specify:
#   * bond type
#   * K (energy/distance^2)
#   * R0 (distance)
#

#bond_coeff   1   60.0   1.0
#bond_coeff   2   harmonic 0.1   1.0

###################################################
compute 1 all gyration
variable rog equal c_1
#compute 2 all coord/atom cutoff 1.1

#dump 2 all custom 10000 contact_number.dump id c_2


###
# Set up fixes
###
thermo_style   custom   step  temp enthalpy c_1
fix 1 all nve   ###NVE ensemble

fix 2 all   langevin   1.0 1.0 1.0  778655   ###Langevin integrator Tstart Tstop 1/friction rndseed


##### Sample thermodynamic info  (temperature, energy, pressure, etc.) #####
thermo 1000









############################################################################

###
# set timestep of integrator

timestep 0.01

###
# run integration for a number of steps
###
#run 0
#variable r equal c_1
#if "$r < 63.1" then "quit 1"

# lj potential minimum, cause molecule to explore
run 100000
Generated 0 of 0 mixed pair_coeff terms from geometric mixing rule
Last active /omp style is angle_style cosine/omp
Neighbor list info ...
  update: every = 1 steps, delay = 1 steps, check = yes
  max neighbors/atom: 2000, page size: 100000
  master list distance cutoff = 5.1224615
  ghost atom cutoff = 5.1224615
  binsize = 2.5612308, bins = 781 781 781
  1 neighbor lists, perpetual/occasional/extra = 1 0 0
  (1) pair lj/cut/omp, perpetual
      attributes: half, newton on, omp
      pair build: half/bin/newton/omp
      stencil: half/bin/3d
      bin: standard
WARNING: Communication cutoff 5.12246152962189 is shorter than a bond length based estimate of 5.455. This may lead to errors. (src/comm.cpp:723)
Per MPI rank memory allocation (min/avg/max) = 1862 | 1862 | 1862 Mbytes
   Step          Temp         Enthalpy         c_1      
         0   0              13.253869      85.360713    
      1000   1.050494       17.997657      84.479807    
      2000   0.99898061     18.100113      83.835419    
      3000   1.0477425      18.830208      83.272455    
      4000   0.98834086     18.956189      82.649281    
      5000   1.0183578      19.335939      82.087552    
      6000   0.96193111     19.043599      81.622236    
      7000   1.0118739      18.739667      81.194998    
      8000   0.99647726     19.429865      80.874822    
      9000   1.0026338      19.835185      80.546266    
     10000   1.065935       19.343804      80.226076    
     11000   0.98016485     19.716432      79.85063     
     12000   1.0012335      19.326162      79.345616    
     13000   0.9959256      19.804807      79.014762    
     14000   0.97792479     20.265851      78.494694    
     15000   1.0121757      19.554804      77.949546    
     16000   0.98726343     19.319381      77.422301    
     17000   0.99921723     19.651526      77.267208    
     18000   0.9973852      19.702742      77.048298    
     19000   0.98539211     19.550757      77.065097    
     20000   0.99383824     19.966175      76.945366    
     21000   1.0202545      19.661627      76.603275    
     22000   0.97902986     20.100106      76.248172    
     23000   0.95518468     19.989711      76.203447    
     24000   0.94132618     20.069474      75.990249    
     25000   0.97915837     19.4972        75.991843    
     26000   1.005929       19.867192      75.856152    
     27000   0.98904442     19.564821      75.637785    
     28000   1.032355       19.990812      75.669821    
     29000   1.0353841      20.084262      75.557401    
     30000   1.0089427      19.798794      75.336402    
     31000   0.98614795     20.470111      75.214682    
     32000   1.0409805      19.969824      75.187536    
     33000   0.9825656      19.795072      74.79823     
     34000   1.0153814      19.742643      74.812128    
     35000   1.0097365      19.456442      74.572764    
     36000   0.99722842     20.102738      74.403976    
     37000   1.0256928      20.158847      74.18018     
     38000   0.9915627      20.349476      73.914109    
     39000   1.041558       20.044669      73.72356     
     40000   0.99254724     19.72452       73.959486    
     41000   0.97017678     19.956615      74.031127    
     42000   1.0147739      20.297822      73.899505    
     43000   1.0049704      20.517109      73.842104    
     44000   0.96910638     20.05839       73.899036    
     45000   0.93768557     20.034105      73.720322    
     46000   1.0480634      20.321798      73.456272    
     47000   1.0368709      20.697214      73.253431    
     48000   1.0548837      19.9759        73.129284    
     49000   1.0286268      19.874114      73.011802    
     50000   1.0358182      20.422967      72.960379    
     51000   1.0082214      20.081195      73.041558    
     52000   0.98975105     20.033392      72.933057    
     53000   1.0453732      20.263175      72.718112    
     54000   1.0246086      20.434249      72.643682    
     55000   1.0000296      20.146506      72.324752    
     56000   1.0046608      20.468309      72.033837    
     57000   0.99645447     20.01874       71.836615    
     58000   0.97997013     20.138503      71.683569    
     59000   1.0208364      20.347844      71.596524    
     60000   0.9951196      19.496762      71.429296    
     61000   0.98636439     19.889819      71.30593     
     62000   0.99843254     20.146172      71.116083    
     63000   1.0486215      20.215841      70.777793    
     64000   1.0257655      20.352578      70.620818    
     65000   1.0059256      20.02207       70.445632    
     66000   1.0652861      20.206327      70.398943    
     67000   1.0737602      19.825778      70.564079    
     68000   1.0325766      20.633625      70.469799    
     69000   1.0001248      20.485165      70.298213    
     70000   0.98732264     20.36666       70.079056    
     71000   0.9990272      20.077398      70.07233     
     72000   0.98193475     20.479339      69.978276    
     73000   0.98319303     20.11792       69.886187    
     74000   0.96562965     19.976247      69.986498    
     75000   1.0118977      20.237661      69.941828    
     76000   1.0191794      20.228175      69.985318    
     77000   1.027232       20.516986      69.906445    
     78000   0.95103588     20.000289      69.756862    
     79000   0.97531136     20.433489      69.529031    
     80000   1.0031464      20.34741       69.344577    
     81000   0.99149456     20.700193      69.372195    
     82000   1.045449       20.710711      69.180381    
     83000   0.98022937     20.294598      68.92307     
     84000   0.98187402     20.121622      68.74418     
     85000   0.99989633     20.555563      69.001991    
     86000   0.96793119     19.854296      68.858988    
     87000   1.0035116      19.873088      68.66559     
     88000   0.98101231     20.310542      68.586402    
     89000   1.0096014      20.271681      68.506166    
     90000   0.99987693     20.300711      68.347743    
     91000   1.0322211      20.655754      68.333894    
     92000   0.98212548     20.28229       68.307529    
     93000   1.0248529      20.864656      68.25126     
     94000   1.0100409      20.828769      68.253599    
     95000   0.98613785     20.016654      67.930813    
     96000   1.0377632      20.877587      67.768379    
     97000   1.0079205      20.71869       67.817728    
     98000   1.0294806      20.64619       67.599563    
     99000   0.98274767     20.462681      67.76394     
    100000   0.9953711      20.443742      67.726698    
Loop time of 208.34 on 2 procs for 100000 steps with 1001 atoms

Performance: 414706.456 tau/day, 479.984 timesteps/s
96.4% CPU use with 1 MPI tasks x 2 OpenMP threads

MPI task timing breakdown:
Section |  min time  |  avg time  |  max time  |%varavg| %total
---------------------------------------------------------------
Pair    | 1.0885     | 1.0885     | 1.0885     |   0.0 |  0.52
Bond    | 1.9135     | 1.9135     | 1.9135     |   0.0 |  0.92
Neigh   | 200.37     | 200.37     | 200.37     |   0.0 | 96.17
Comm    | 0.026527   | 0.026527   | 0.026527   |   0.0 |  0.01
Output  | 0.29884    | 0.29884    | 0.29884    |   0.0 |  0.14
Modify  | 4.373      | 4.373      | 4.373      |   0.0 |  2.10
Other   |            | 0.2702     |            |       |  0.13

Nlocal:           1001 ave        1001 max        1001 min
Histogram: 1 0 0 0 0 0 0 0 0 0
Nghost:              0 ave           0 max           0 min
Histogram: 1 0 0 0 0 0 0 0 0 0
Neighs:           6856 ave        6856 max        6856 min
Histogram: 1 0 0 0 0 0 0 0 0 0

Total # of neighbors = 6856
Ave neighs/atom = 6.8491508
Ave special neighs/atom = 1.998002
Neighbor list builds = 1163
Dangerous builds = 0

# Replace lj potential, now collapse
pair_style      lj/cut 3

# Cutoff simul when gyration under 7
# Variable created with equal requires v_ + 'name'
fix 3 all halt 1000 v_rog < 7

run 3000000
Generated 0 of 0 mixed pair_coeff terms from geometric mixing rule
Last active /omp style is angle_style cosine/omp
Per MPI rank memory allocation (min/avg/max) = 1862 | 1862 | 1862 Mbytes
   Step          Temp         Enthalpy         c_1      
    100000   0.9953711      19.736453      67.726698    
    101000   0.98126714     19.164732      67.812039    
    102000   0.97925864     19.393678      67.548784    
    103000   1.0124318      19.524049      67.086554    
    104000   0.99804854     19.455515      66.9543      
    105000   1.0070547      19.311047      66.389628    
    106000   0.98916586     19.221398      66.126047    
    107000   0.97086864     19.592849      65.902558    
    108000   1.0375839      18.77416       65.725046    
    109000   0.99586317     19.242952      65.718755    
    110000   1.0359322      19.963812      65.356046    
    111000   1.0373816      19.544909      65.176488    
    112000   1.0023361      19.356557      64.897342    
    113000   1.0166469      19.536268      64.862199    
    114000   0.94322227     19.343011      64.651914    
    115000   1.0083661      18.743882      64.3829      
    116000   1.0073089      18.577045      64.06992     
    117000   0.99982797     18.961017      63.947716    
    118000   0.97916481     18.485192      63.567318    
    119000   1.01479        18.956772      63.307252    
    120000   1.0061688      19.456184      63.146731    
    121000   1.0267386      19.829027      62.913781    
    122000   0.93703627     19.581767      62.775801    
    123000   1.0131574      19.384023      62.585836    
    124000   0.98600881     18.835896      62.52952     
    125000   1.0289993      19.068156      62.537905    
    126000   0.99354397     18.972215      62.727617    
    127000   1.0440657      19.206456      62.451631    
    128000   1.0755251      19.36133       62.30014     
    129000   1.0512811      19.265461      62.133197    
    130000   1.0081745      18.775145      61.970611    
    131000   1.0049857      19.667919      61.8468      
    132000   0.9917157      19.142         61.58717     
    133000   0.99952419     19.403127      61.555795    
    134000   1.0042515      18.921226      61.375676    
    135000   0.99235503     19.102941      61.265784    
    136000   1.0191251      18.987473      61.161042    
    137000   1.0004099      18.42405       61.094535    
    138000   1.0166912      18.633948      60.883831    
    139000   0.95204134     18.308994      60.821176    
    140000   1.0246001      18.938919      60.563138    
    141000   0.98278377     18.395306      60.228809    
    142000   0.98168293     18.780438      60.099337    
    143000   0.99819897     18.801011      59.978488    
    144000   0.9954788      19.001355      60.01782     
    145000   1.0000475      18.548345      59.948318    
    146000   1.04076        18.393541      59.555175    
    147000   1.0454045      18.958923      59.313883    
    148000   1.0856935      18.547242      59.022711    
    149000   0.99943159     18.759461      58.788905    
    150000   0.95535035     18.48266       58.514029    
    151000   0.97662106     18.80411       58.186404    
    152000   0.99381855     17.934847      58.148896    
    153000   1.0728753      18.953937      58.021575    
    154000   1.011929       18.466244      57.820192    
    155000   0.97937798     18.744065      57.580237    
    156000   1.0219601      18.725913      57.352671    
    157000   0.99262372     18.975966      57.246366    
    158000   0.98692836     19.045107      57.001093    
    159000   1.0225106      18.35869       56.936914    
    160000   1.019622       18.820356      56.844647    
    161000   0.99249238     18.540445      56.676719    
    162000   1.013804       18.264479      56.426448    
    163000   0.96325146     17.791407      56.518743    
    164000   1.0180794      18.484268      56.414195    
    165000   0.99913052     18.313177      56.367656    
    166000   0.99436742     18.253667      56.261112    
    167000   0.96882098     18.547536      56.165911    
    168000   1.0084985      18.163874      56.031411    
    169000   0.97801945     18.208034      55.756112    
    170000   0.99132133     18.134864      55.671865    
    171000   1.0006935      18.675641      55.677973    
    172000   1.0082535      18.119439      55.41374     
    173000   0.93373915     17.941228      55.191329    
    174000   0.99376048     18.026756      55.050224    
    175000   0.97304444     17.73191       54.693602    
    176000   1.0151574      18.542215      54.487828    
    177000   1.0357103      18.622442      54.271191    
    178000   0.99982936     18.526545      54.455019    
    179000   1.0027612      18.293899      54.290645    
    180000   1.0004013      18.075515      54.018555    
    181000   0.97915404     17.478453      54.14939     
    182000   1.0136096      18.392814      53.914237    
    183000   0.99225041     18.428236      53.6717      
    184000   0.97493717     18.248546      53.749705    
    185000   0.99314536     18.559399      53.672143    
    186000   0.93061453     18.32142       53.584219    
    187000   0.97763132     17.8466        53.556672    
    188000   0.9848111      17.427391      53.593754    
    189000   1.0122415      17.352493      53.540837    
    190000   0.96592862     18.249713      53.322851    
    191000   1.0067169      18.0448        53.303596    
    192000   0.98935265     17.979591      53.636286    
    193000   1.0031155      18.395955      53.690846    
    194000   0.96687596     17.677763      53.550372    
    195000   1.0059022      18.41002       53.186277    
    196000   0.99829133     17.763793      53.206986    
    197000   1.0043879      17.781722      53.119955    
    198000   0.99004155     17.667892      52.942155    
    199000   1.0051361      17.820035      52.642758    
    200000   1.0297393      18.033712      52.609856    
    201000   1.0291794      18.166905      52.509675    
    202000   1.0037589      18.048653      52.39538     
    203000   0.9595995      17.488211      52.234695    
    204000   1.0282908      17.486206      51.969023    
    205000   1.0152476      18.109129      52.028917    
    206000   0.98997636     18.061903      51.886068    
    207000   1.0244327      17.681784      51.718909    
    208000   1.0257354      17.8042        51.608909    
    209000   0.99614229     17.777633      51.291124    
    210000   0.99248411     17.49065       50.965126    
    211000   1.0126635      17.963732      50.88051     
    212000   0.97113658     17.836985      50.772345    
    213000   0.96614159     17.846102      50.510255    
    214000   0.98156858     17.819107      50.259568    
    215000   0.95051802     17.378063      50.1396      
    216000   1.0348835      17.892341      49.769234    
    217000   0.98976107     18.656022      49.619339    
    218000   1.0343792      17.740761      49.377534    
    219000   0.95966307     17.530367      49.528203    
    220000   1.02226        17.882873      49.416536    
    221000   0.9716866      17.686496      49.031746    
    222000   1.0463129      17.855134      48.843123    
    223000   0.977696       17.682781      48.888832    
    224000   1.009871       17.764195      48.793361    
    225000   1.0016438      18.377896      48.814356    
    226000   1.0460806      17.570982      48.490397    
    227000   1.0143367      17.607511      48.535607    
    228000   0.98652857     17.776456      48.521719    
    229000   0.97862479     17.015571      48.479628    
    230000   1.0367956      17.982037      48.54695     
    231000   1.0151317      17.817797      48.703318    
    232000   1.0114676      18.051816      48.731591    
    233000   1.0181401      17.498206      48.649093    
    234000   1.0347581      17.768281      48.487792    
    235000   1.0117017      17.665793      48.207706    
    236000   1.0356016      17.827246      47.868212    
    237000   1.0159565      18.237967      47.567589    
    238000   0.95900285     17.507932      47.394172    
    239000   0.97949607     17.552545      47.360055    
    240000   0.99482908     17.463097      47.265401    
    241000   0.95386215     17.382746      47.146033    
    242000   0.96662687     17.792248      46.938753    
    243000   0.99793525     17.372344      46.882983    
    244000   1.0114795      17.940478      46.755913    
    245000   1.0324545      17.552445      46.914206    
    246000   1.023348       17.797286      46.757885    
    247000   0.96900729     17.426508      46.713171    
    248000   1.0047576      17.340388      46.612087    
    249000   0.99253605     17.62569       46.778344    
    250000   1.0193796      17.252072      46.548948    
    251000   1.0062305      17.704018      46.35107     
    252000   1.0187069      17.734322      46.252963    
    253000   1.0002983      17.673386      46.134321    
    254000   0.98620807     17.643194      45.886809    
    255000   1.0034647      17.777698      45.748883    
    256000   0.96154556     17.855261      45.629052    
    257000   1.0160858      17.732557      45.261423    
    258000   0.94244725     17.716829      45.199865    
    259000   1.0329568      17.520013      45.174107    
    260000   0.98879726     17.581597      45.011439    
    261000   1.0106216      17.024279      44.875559    
    262000   0.97519169     18.067839      44.891051    
    263000   0.99175143     17.847734      44.645311    
    264000   0.99814347     18.1683        44.450572    
    265000   0.94363002     17.718218      44.409908    
    266000   0.991508       17.817719      44.270324    
    267000   1.016975       17.713         44.098928    
    268000   0.9735201      17.520736      43.831962    
    269000   0.98223388     17.401909      43.750902    
    270000   0.99919043     17.906903      43.641743    
    271000   1.0264419      17.870692      43.413086    
    272000   1.0236857      17.70636       43.447045    
    273000   0.96691128     17.212518      43.507127    
    274000   0.99799673     18.164458      43.441012    
    275000   0.98367701     17.678351      43.766169    
    276000   0.96817083     17.412056      43.799848    
    277000   1.0193789      17.391555      43.758365    
    278000   0.99049726     17.946627      43.599024    
    279000   1.0229466      17.688014      43.579287    
    280000   0.9824601      17.895575      43.631334    
    281000   1.0183973      17.421656      43.718073    
    282000   1.0167341      17.763201      43.664134    
    283000   1.0131326      17.578229      43.59492     
    284000   1.0197478      17.717895      43.538818    
    285000   0.98721257     18.139135      43.301814    
    286000   0.99518086     17.18776       43.229353    
    287000   1.0416036      17.71005       43.135766    
    288000   1.0086109      17.117333      42.992041    
    289000   1.0008776      18.012558      42.72057     
    290000   0.94420749     17.311237      42.739948    
    291000   1.042627       17.939972      42.712678    
    292000   0.97262266     17.606666      42.615533    
    293000   0.98369282     17.744271      42.406174    
    294000   1.0159942      17.847949      42.390025    
    295000   1.0358449      17.554188      42.322422    
    296000   0.99674139     17.505597      42.208517    
    297000   1.020923       17.950727      42.117688    
    298000   1.0022795      17.847068      42.01194     
    299000   1.070363       17.272824      41.720812    
    300000   0.99945326     17.710773      41.912178    
    301000   1.0143711      17.649504      41.972118    
    302000   0.96410334     17.544595      41.794223    
    303000   0.97791959     17.494351      41.770875    
    304000   1.0070257      18.180989      41.725096    
    305000   1.014749       17.908489      41.67312     
    306000   1.0126402      18.012477      41.600178    
    307000   1.033961       18.078287      41.556723    
    308000   1.0605813      17.888969      41.580107    
    309000   0.99678123     17.612127      41.533225    
    310000   0.97338504     17.628372      41.711103    
    311000   0.98987172     17.507977      41.92892     
    312000   1.0250405      18.041376      42.066027    
    313000   1.0231948      17.064046      42.004512    
    314000   1.0114446      17.560613      42.159665    
    315000   1.0490322      17.343276      42.372876    
    316000   0.99043052     17.139788      42.338623    
    317000   1.0010575      17.456481      42.4525      
    318000   1.0132183      17.623118      42.485878    
    319000   1.0109866      17.819124      42.39999     
    320000   0.99722383     17.994053      42.27468     
    321000   0.98677167     17.105864      42.275364    
    322000   0.9670264      17.193936      42.410751    
    323000   1.0117685      17.464213      42.428216    
    324000   0.98136203     17.463242      42.344383    
    325000   1.011822       17.569618      42.265808    
    326000   1.0115873      18.184602      42.233855    
    327000   0.98798014     17.440998      42.387843    
    328000   1.0004409      17.45787       42.485241    
    329000   1.0270815      17.343469      42.577579    
    330000   1.0293113      17.342454      42.641353    
    331000   0.97756119     17.633253      42.606423    
    332000   0.98342082     17.55061       42.791801    
    333000   1.006864       18.269721      42.719234    
    334000   1.0465587      17.25878       42.963783    
    335000   1.0296839      17.835748      42.764661    
    336000   0.97515444     17.30901       42.723132    
    337000   1.0013565      17.423339      42.575458    
    338000   1.0139796      17.594233      42.672962    
    339000   0.94852161     17.456129      42.17149     
    340000   1.0525193      17.97001       42.13979     
    341000   0.99409001     17.327423      42.120993    
    342000   0.99494254     17.312648      42.271063    
    343000   1.0007249      17.704068      42.03635     
    344000   0.97136958     17.775081      42.075465    
    345000   1.0078997      17.983552      42.117464    
    346000   0.9947594      17.512745      42.16977     
    347000   1.0349749      17.954343      42.146186    
    348000   0.97554862     17.665942      42.174811    
    349000   1.0342325      17.024989      42.07599     
    350000   0.98308307     17.646864      41.938501    
    351000   1.0315684      17.87011       41.793262    
    352000   1.0135984      17.883893      41.675219    
    353000   0.92473751     17.39411       41.434377    
    354000   0.99321082     17.257175      41.465596    
    355000   0.95985267     17.661382      41.142671    
    356000   0.97107912     17.323394      41.192626    
    357000   1.0048282      17.278765      41.200724    
    358000   1.0168163      17.709273      41.351286    
    359000   1.0241158      17.385812      41.559012    
    360000   1.0247467      17.438326      41.248871    
    361000   1.0038381      17.274915      41.071048    
    362000   0.95860646     17.135273      41.126898    
    363000   1.0036041      17.92746       40.89926     
    364000   0.99883808     18.003513      40.770635    
    365000   1.0414174      17.142792      40.864777    
    366000   1.0171259      17.65864       41.006775    
    367000   0.95150509     17.305189      41.258757    
    368000   1.0390113      17.818436      41.098674    
    369000   1.0281866      17.280162      41.161316    
    370000   0.98989753     17.326788      40.918875    
    371000   1.0173083      17.104246      40.912721    
    372000   1.0437174      17.258786      40.938517    
    373000   1.0235939      17.629785      40.927972    
    374000   1.0271453      17.450699      40.879266    
    375000   1.0015184      17.843732      40.674229    
    376000   0.9901714      18.223065      40.613722    
    377000   1.001357       17.465577      40.755153    
    378000   0.98739147     17.259688      40.724268    
    379000   0.93092962     17.251225      40.506083    
    380000   1.0175774      17.878468      40.486799    
    381000   1.0041066      17.980326      40.406092    
    382000   0.95645113     17.512789      40.320163    
    383000   0.95614545     17.640836      39.807321    
    384000   1.0345199      17.482564      39.834139    
    385000   1.0324674      17.997934      39.785529    
    386000   0.98845289     18.134921      39.488365    
    387000   0.99647671     17.051526      39.482397    
    388000   1.0170546      17.939781      39.238947    
    389000   0.97297435     17.695228      39.438084    
    390000   1.0082123      17.520431      39.236215    
    391000   1.0239682      17.370998      39.121697    
    392000   0.98900293     17.629264      38.965866    
    393000   1.0413654      17.749464      38.941121    
    394000   1.0142386      18.065944      38.531731    
    395000   0.9891043      17.677408      38.34131     
    396000   0.97932134     16.952684      38.363927    
    397000   1.0207282      17.193703      38.322654    
    398000   1.0309244      17.825477      38.221684    
    399000   1.0099363      17.496572      38.0809      
    400000   1.0566847      18.296645      37.907442    
    401000   1.0354382      17.548407      37.58614     
    402000   1.0712909      17.759678      37.382825    
    403000   1.0421995      17.257544      37.130261    
    404000   1.0247922      17.691673      37.033517    
    405000   1.0149871      17.580475      36.760346    
    406000   1.0281385      18.210809      36.742589    
    407000   1.0480013      17.315584      36.495238    
    408000   1.038608       17.927335      36.656926    
    409000   1.0440864      17.359043      36.619962    
    410000   1.0056351      17.379648      36.216124    
    411000   1.0169514      17.185433      36.029099    
    412000   1.0106566      18.037783      35.894105    
    413000   1.0280011      17.951539      35.79807     
    414000   0.98756004     17.346944      35.764719    
    415000   1.0379849      17.594929      35.650898    
    416000   1.0128567      18.058712      35.474534    
    417000   0.99474534     17.566302      35.653731    
    418000   0.94203235     17.762216      35.472942    
    419000   1.0054276      17.366948      35.469424    
    420000   0.98437646     18.165257      35.369864    
    421000   0.99232496     17.797517      35.504736    
    422000   0.94458728     17.233722      35.511583    
    423000   1.060429       17.908908      35.300284    
    424000   0.98103959     17.420258      35.348086    
    425000   0.97604072     17.882808      35.346989    
    426000   1.0188628      18.194601      35.168289    
    427000   1.0241416      17.220621      35.094841    
    428000   0.98872261     17.359715      34.994383    
    429000   1.0143606      17.394839      35.054118    
    430000   1.0296521      17.276181      35.085879    
    431000   0.95934725     17.627717      34.726517    
    432000   1.0115455      17.881237      34.529934    
    433000   0.99057859     17.406323      34.534729    
    434000   0.97876899     17.605423      34.367806    
    435000   1.0114775      17.103361      34.270179    
    436000   1.0726084      17.6127        34.001524    
    437000   1.0283861      17.851794      33.854424    
    438000   1.0081473      17.312055      33.853794    
    439000   0.97173921     17.82858       33.796409    
    440000   1.04955        17.268088      33.945483    
    441000   0.9954881      17.933178      33.88257     
    442000   1.0850055      17.470888      33.845145    
    443000   1.0114159      17.617751      33.66684     
    444000   1.0064521      17.182273      33.549449    
    445000   0.99205831     16.953061      33.205173    
    446000   0.9621676      16.86332       33.092905    
    447000   1.0003098      17.231114      33.3122      
    448000   0.97261817     16.522433      33.192485    
    449000   0.96695295     17.464248      33.249103    
    450000   0.97834004     17.175649      33.343841    
    451000   1.0022925      17.537775      33.305429    
    452000   1.0396477      17.650274      33.204144    
    453000   1.0033053      17.883489      33.037041    
    454000   1.0337536      17.578804      32.882654    
    455000   1.0062422      17.861422      32.741007    
    456000   0.95645786     17.767442      32.851441    
    457000   0.98444433     17.080001      33.042686    
    458000   1.0212114      17.193861      33.297423    
    459000   0.99727083     16.926471      33.144687    
    460000   1.0025182      17.477452      32.931217    
    461000   1.0169418      18.020028      32.877766    
    462000   0.99239101     17.703484      32.79992     
    463000   1.0113977      17.932839      32.690242    
    464000   1.0187463      17.225194      32.654981    
    465000   0.97816427     17.929653      32.685574    
    466000   0.98107314     17.247648      32.81759     
    467000   1.0155801      17.594173      32.85417     
    468000   0.99716463     17.965123      32.944364    
    469000   0.95473183     17.721263      33.029821    
    470000   0.9588498      16.993076      33.045347    
    471000   1.0317994      17.81043       32.906549    
    472000   0.99065231     17.936665      32.642579    
    473000   1.0124476      17.260949      32.516513    
    474000   0.98642668     17.392291      32.639544    
    475000   1.0421594      17.835645      32.707824    
    476000   0.98161078     17.150519      32.621501    
    477000   0.99572604     18.10586       32.550399    
    478000   1.0049968      17.410042      32.573519    
    479000   1.0001269      17.546961      32.747467    
    480000   1.0013022      17.113623      32.565851    
    481000   0.97185477     17.379496      32.531098    
    482000   0.98572049     17.886256      32.368541    
    483000   0.96399047     17.150069      32.120262    
    484000   0.99877038     17.408513      31.988106    
    485000   0.96646096     17.519597      31.931069    
    486000   0.98589034     17.031334      31.764785    
    487000   0.99695685     17.942176      31.626179    
    488000   1.0095491      17.973259      31.648984    
    489000   0.99719817     17.721652      31.656085    
    490000   1.0304291      16.846295      31.500345    
    491000   0.9958454      17.504704      31.227347    
    492000   0.99737901     17.575423      31.098902    
    493000   1.0011715      17.960337      31.040225    
    494000   1.03634        18.137115      30.912863    
    495000   0.9700729      17.922012      30.911493    
    496000   0.99340079     17.121393      31.107794    
    497000   1.0195283      17.199334      30.919667    
    498000   0.99035646     17.53195       31.024081    
    499000   0.97652104     17.831401      30.897469    
    500000   0.98352706     16.882203      30.80632     
    501000   0.99053775     17.226765      30.783455    
    502000   0.99466359     17.040213      30.810838    
    503000   1.0302987      18.04349       30.722982    
    504000   1.0361207      17.932503      30.570195    
    505000   0.99996306     16.808343      30.287286    
    506000   1.016124       17.012767      29.922418    
    507000   0.97221411     17.429346      29.92562     
    508000   1.009389       17.87236       29.698148    
    509000   1.0048683      17.119313      29.557952    
    510000   1.0071387      17.287756      29.530198    
    511000   1.0130788      17.465022      29.48021     
    512000   0.99264264     17.57687       29.345365    
    513000   1.0085441      17.475112      29.23223     
    514000   0.98893002     17.201492      29.044097    
    515000   0.99955755     17.724718      28.999467    
    516000   0.9996142      17.231125      29.040673    
    517000   1.0396035      16.845806      28.967982    
    518000   1.0509542      17.512592      28.733539    
    519000   0.9764047      17.31617       28.542847    
    520000   1.0437373      17.474685      28.470437    
    521000   1.0270586      17.208026      28.371069    
    522000   0.99715296     18.156924      28.288658    
    523000   0.99086867     17.22025       28.163993    
    524000   0.99373617     17.739828      28.282884    
    525000   0.96685606     17.420835      28.340902    
    526000   1.0616004      17.912067      28.103047    
    527000   1.0396382      17.452371      27.981583    
    528000   1.0000719      17.182198      27.837446    
    529000   0.99304393     17.247866      27.663482    
    530000   0.98539057     17.669625      27.499146    
    531000   0.99106712     17.330583      27.291289    
    532000   1.0156082      17.927674      27.277451    
    533000   0.99492091     17.36609       27.380809    
    534000   1.0339103      17.668246      27.24697     
    535000   1.0054869      17.964308      27.19628     
    536000   0.99641341     17.622866      27.022967    
    537000   0.99447012     17.325055      27.285907    
    538000   1.00165        17.681478      27.190964    
    539000   0.99576752     17.378202      27.163955    
    540000   0.99981111     17.344769      27.079777    
    541000   1.0018176      17.18861       26.962177    
    542000   0.97958955     17.178506      27.059395    
    543000   0.98749366     17.03679       27.116479    
    544000   0.96847357     17.974319      26.912523    
    545000   0.98605969     17.506263      26.982821    
    546000   1.0201935      17.905409      26.713658    
    547000   0.97958043     18.054273      26.769027    
    548000   1.0139042      17.706364      26.563455    
    549000   0.99195425     17.071036      26.516572    
    550000   1.0147007      17.328179      26.232817    
    551000   0.98114653     17.456877      26.234509    
    552000   1.0598913      17.651724      26.172946    
    553000   1.013794       16.997945      26.185576    
    554000   0.97129758     17.146308      25.846526    
    555000   1.0560595      17.367094      25.689885    
    556000   1.0126826      16.964751      25.78855     
    557000   1.0084752      17.514447      25.825656    
    558000   1.0351368      18.220164      25.766159    
    559000   1.0023806      17.479817      25.532917    
    560000   1.0532435      17.916682      25.54119     
    561000   1.0043095      17.753208      25.460967    
    562000   1.0133611      17.708517      25.151987    
    563000   0.99763029     17.209757      25.004054    
    564000   0.97324932     17.618634      24.970824    
    565000   0.96478755     17.100129      24.874246    
    566000   0.98955662     17.304651      24.872818    
    567000   1.0288091      17.068096      24.738798    
    568000   0.9586363      17.164402      24.591625    
    569000   1.0456793      17.738939      24.582945    
    570000   0.98177403     18.112888      24.660142    
    571000   1.0175142      17.810906      24.482207    
    572000   1.0448899      17.607147      24.535185    
    573000   0.9949048      17.562156      24.5251      
    574000   1.043641       17.180678      24.259399    
    575000   1.0031322      17.031112      24.218027    
    576000   0.99489874     17.449868      24.284694    
    577000   1.003602       17.078428      24.337221    
    578000   1.0300373      16.801488      24.333359    
    579000   0.9843874      17.883007      24.131407    
    580000   1.0185044      16.873698      24.183204    
    581000   1.0127083      17.370765      23.923209    
    582000   1.0306915      17.421514      23.628574    
    583000   1.0180534      17.192821      23.508249    
    584000   0.98597505     17.636844      23.471668    
    585000   0.98325751     18.143307      23.517472    
    586000   0.99243747     17.82079       23.492017    
    587000   1.0048366      17.391377      23.311502    
    588000   0.99358954     17.808867      23.105449    
    589000   0.98060875     17.238754      23.176808    
    590000   1.0635887      17.591273      22.956309    
    591000   1.0617964      17.369192      22.800535    
    592000   1.0376014      17.194905      22.660985    
    593000   0.9733908      17.197616      22.361636    
    594000   0.96014054     17.656839      22.338799    
    595000   1.0119996      17.228551      22.229978    
    596000   1.0018529      17.098905      21.800714    
    597000   1.0550732      17.597338      21.633523    
    598000   1.0608581      17.604047      21.643556    
    599000   1.0554537      17.879598      21.393711    
    600000   1.0373731      17.064145      21.3365      
    601000   1.0032092      17.456708      21.167079    
    602000   0.97111595     17.58465       21.286554    
    603000   1.0028094      17.242466      21.082035    
    604000   1.0105835      17.686848      20.821095    
    605000   1.0559411      17.761735      20.699537    
    606000   1.0228727      17.700523      20.480297    
    607000   0.95925546     16.998441      20.328904    
    608000   0.99687819     16.753272      20.286675    
    609000   1.0302541      17.257842      20.148959    
    610000   1.015765       16.761715      20.168019    
    611000   1.024765       17.367356      19.98791     
    612000   1.0041337      17.304387      19.789058    
    613000   1.0119394      17.843664      19.742175    
    614000   0.9772245      16.903927      19.674099    
    615000   1.0024587      17.553412      19.42311     
    616000   1.0008971      17.447518      19.113234    
    617000   0.97061085     17.652998      18.812033    
    618000   1.0096245      17.294649      18.813063    
    619000   1.0223845      17.605759      18.730706    
    620000   1.0328948      17.184554      18.448663    
    621000   1.0011761      16.888607      18.547423    
    622000   1.0143189      17.330531      18.474833    
    623000   0.99755158     16.683522      18.527204    
    624000   1.0097634      17.408855      18.414683    
    625000   1.0051659      17.424637      18.454556    
    626000   1.0467627      17.412252      18.4946      
    627000   1.0231496      17.86328       18.166861    
    628000   1.0399705      17.020105      17.91928     
    629000   1.0062792      17.134362      17.796621    
    630000   1.0229665      17.08638       17.687919    
    631000   1.0097839      17.514502      17.693693    
    632000   1.0009067      17.042443      17.732427    
    633000   0.96274423     17.869217      17.63701     
    634000   0.99584345     17.416974      17.545344    
    635000   1.03581        17.653143      17.459171    
    636000   0.99127777     17.047738      17.726734    
    637000   0.97401218     17.279564      17.652343    
    638000   1.0276974      16.911777      17.671357    
    639000   0.99844795     17.682812      17.607964    
    640000   0.98504374     16.789753      17.668467    
    641000   0.97511084     17.681716      17.807186    
    642000   1.0039234      17.382583      17.723057    
    643000   0.96854766     17.220475      17.586507    
    644000   0.99920942     18.4075        17.590549    
    645000   1.0062501      17.377361      17.670759    
    646000   1.0627129      17.551141      17.647504    
    647000   0.97805917     17.150708      17.775447    
    648000   1.0369654      17.047386      17.768726    
    649000   0.9984733      17.034049      17.838466    
    650000   1.0005311      17.38931       17.781083    
    651000   0.93866021     17.113552      17.661999    
    652000   1.0110142      17.409152      17.495883    
    653000   0.98348629     17.5382        17.395169    
    654000   1.0124785      17.461192      17.248536    
    655000   1.0029529      17.227977      17.261378    
    656000   1.0189116      17.247698      17.185649    
    657000   1.0012757      17.772261      17.093306    
    658000   0.99423842     17.67814       16.989684    
    659000   1.0456468      17.923152      17.042867    
    660000   0.98878124     17.264289      16.815743    
    661000   0.99068213     17.137565      16.667131    
    662000   1.0238287      17.086206      16.51049     
    663000   0.97766281     17.634464      16.298796    
    664000   0.99160915     17.68773       16.356207    
    665000   0.99272401     17.160277      16.288407    
    666000   0.97799059     17.663645      16.299598    
    667000   0.99206205     17.270974      16.234333    
    668000   0.99318141     17.548951      16.287531    
    669000   0.99276518     17.187132      16.424261    
    670000   1.02406        17.012569      16.341324    
    671000   0.99610587     17.494492      16.450127    
    672000   0.96300131     17.045237      16.415955    
    673000   0.96576968     16.7134        16.44884     
    674000   0.99264416     17.207862      16.123911    
    675000   0.94060961     16.858402      16.14074     
    676000   0.98805255     17.573297      16.206502    
    677000   1.0058561      17.615638      16.252528    
    678000   0.99530341     17.988786      16.232704    
    679000   0.93737706     17.083623      16.080517    
    680000   1.0097         17.0965        16.069664    
    681000   1.0733415      17.361251      16.055673    
    682000   1.0120624      17.72542       15.987588    
    683000   0.97538627     17.23537       15.486997    
    684000   1.0081314      16.905164      15.368261    
    685000   1.0210076      17.817703      15.36199     
    686000   0.95616967     17.045775      15.341374    
    687000   0.99020402     17.115968      15.27506     
    688000   0.98815378     17.754135      15.247514    
    689000   1.0274816      17.575165      15.231167    
    690000   0.96299514     16.510607      15.286486    
    691000   1.0185347      17.662143      15.358533    
    692000   0.96724753     17.179856      15.381345    
    693000   1.0112975      16.863733      15.224057    
    694000   1.0068099      17.24294       15.067938    
    695000   0.99045123     17.086432      14.856501    
    696000   1.0072987      16.899556      14.670534    
    697000   0.99842367     17.514817      14.42219     
    698000   0.97283768     17.023128      14.498119    
    699000   1.0168473      16.93585       14.469865    
    700000   1.0098534      17.359693      14.330652    
    701000   1.0378105      17.407522      14.257229    
    702000   0.98517606     17.849307      14.047621    
    703000   1.0091182      17.141186      14.092082    
    704000   0.96085947     17.191406      14.041649    
    705000   0.98388002     16.853768      14.057494    
    706000   1.0133277      16.715474      14.099147    
    707000   0.9702796      17.032956      14.242678    
    708000   0.98292045     17.087519      14.299769    
    709000   1.0310102      17.219519      14.067595    
    710000   0.97785567     17.821496      14.095191    
    711000   0.97818717     17.265939      13.899262    
    712000   1.0233865      16.988614      13.677713    
    713000   0.99905862     16.868038      13.416753    
    714000   0.99067687     17.235288      13.234574    
    715000   0.99690467     17.264381      13.140654    
    716000   0.98668977     16.827516      13.090473    
    717000   0.97215335     16.787438      13.205892    
    718000   1.0352071      16.998063      13.080074    
    719000   1.0079241      17.223292      12.896601    
    720000   1.0139711      17.095426      12.728668    
    721000   1.010643       16.973888      12.55472     
    722000   0.98747646     17.664846      12.676233    
    723000   1.0034424      17.00959       12.619028    
    724000   0.96868041     17.198779      12.603676    
    725000   1.0112222      17.4301        12.558443    
    726000   0.95609293     17.013688      12.515093    
    727000   0.99149704     16.795419      12.361536    
    728000   1.0169226      17.211447      12.201469    
    729000   0.97195334     17.092036      12.046894    
    730000   1.076305       17.126469      11.950767    
    731000   1.0242891      16.94514       11.88787     
    732000   1.044087       17.51746       11.65601     
    733000   1.008547       17.346491      11.354702    
    734000   0.98894144     16.86661       11.319839    
    735000   0.97996981     16.832831      11.046704    
    736000   1.0246724      17.876934      10.849833    
    737000   1.027471       16.951031      10.891643    
    738000   1.0064707      17.071012      10.739212    
    739000   0.99181128     17.009746      10.562388    
    740000   1.0359903      16.984236      10.445454    
    741000   1.0101272      16.980678      10.444889    
    742000   1.0269446      16.725681      10.559725    
    743000   0.96097147     17.89859       10.47157     
    744000   0.98315295     16.976426      10.464304    
    745000   1.0023625      17.682562      10.499706    
    746000   0.96809415     17.174416      10.677445    
    747000   1.0092704      17.438544      10.764676    
    748000   1.0013497      16.87706       10.826705    
    749000   1.0302166      17.808231      10.696994    
    750000   1.0176004      16.734961      10.93755     
    751000   0.97939076     17.70399       10.938093    
    752000   0.9978752      16.838382      11.118384    
    753000   1.0328949      17.224235      11.326337    
    754000   1.0276433      16.977494      11.35054     
    755000   0.98286016     17.489382      11.268832    
    756000   1.0205535      17.374475      11.071763    
    757000   1.0096063      17.372426      11.107034    
    758000   0.9863619      17.250487      10.97297     
    759000   1.001218       17.288574      10.83514     
    760000   1.0454388      17.602008      10.687743    
    761000   0.98218553     16.99141       10.372676    
    762000   0.98341803     17.085065      10.294318    
    763000   1.0252613      17.085706      10.193758    
    764000   0.96143573     17.275013      10.130953    
    765000   1.0405921      17.36316       10.110674    
    766000   0.96483319     16.805975      10.141831    
    767000   1.0091118      16.739849      9.9815944    
    768000   0.99066639     16.937107      10.021075    
    769000   0.98940274     17.13665       9.9349807    
    770000   1.0014773      17.401256      9.8539234    
    771000   1.0052351      17.400907      9.6732398    
    772000   1.0371189      17.311469      9.7897344    
    773000   0.98125504     17.251513      9.582646     
    774000   0.96559977     16.5327        9.6722297    
    775000   0.98506914     16.874196      9.6433776    
    776000   0.96654475     17.070443      9.4937595    
    777000   1.0063573      17.108013      9.3501089    
    778000   1.0452059      17.966001      9.3127581    
    779000   1.0542299      17.714879      9.2483412    
    780000   0.99234959     17.253004      9.3216256    
    781000   1.0155154      16.826631      9.2016779    
    782000   1.0419781      16.700544      9.2635912    
    783000   0.99196773     17.448127      9.3175977    
    784000   0.97165221     17.946672      9.3282074    
    785000   1.0017412      16.399817      9.2523499    
    786000   1.0242467      17.02387       9.0635099    
    787000   0.98042172     16.82332       9.06002      
    788000   1.034821       17.571675      8.9977743    
    789000   1.0120954      17.242182      9.0400726    
    790000   0.96297198     16.470058      9.0806839    
    791000   0.96967958     17.326056      9.125206     
    792000   0.99408169     17.7474        8.9663432    
    793000   0.9965758      17.655946      9.0801982    
    794000   0.96208195     16.771732      8.8685864    
    795000   0.98251495     16.648112      8.8305247    
    796000   0.98688356     16.946708      8.6927248    
    797000   0.97923201     17.176517      8.5941185    
    798000   0.99661059     17.142076      8.6679513    
    799000   0.93551627     16.568372      8.6449031    
    800000   1.0013999      17.524193      8.518449     
    801000   0.96911603     17.414453      8.5036049    
    802000   1.0237171      16.855263      8.4029955    
    803000   0.96322704     17.088396      8.4187396    
    804000   0.99216229     16.725776      8.2914408    
    805000   1.0010727      17.358519      8.3117966    
    806000   1.0100456      17.338741      8.2611203    
    807000   0.99386588     17.262174      8.2134197    
    808000   1.039737       16.619177      8.0979154    
    809000   1.0040205      17.380607      8.0975543    
    810000   1.0173877      17.519769      7.9443884    
    811000   1.0135773      17.228268      8.0656066    
    812000   0.96973448     17.00084       7.9519132    
    813000   0.99307681     17.289313      7.7761444    
    814000   1.0070698      17.110813      7.7794447    
    815000   1.0217957      16.873768      7.5191526    
    816000   1.0291334      16.926868      7.1458726    
Fix halt condition for fix-id 3 met on step 817000 with value 6.701838260713917 (src/fix_halt.cpp:237)
    817000   1.0132247      17.014263      6.7018383    
Loop time of 877.713 on 2 procs for 717000 steps with 1001 atoms

Performance: 705798.251 tau/day, 816.896 timesteps/s
127.4% CPU use with 1 MPI tasks x 2 OpenMP threads

MPI task timing breakdown:
Section |  min time  |  avg time  |  max time  |%varavg| %total
---------------------------------------------------------------
Pair    | 249.58     | 249.58     | 249.58     |   0.0 | 28.43
Bond    | 15.783     | 15.783     | 15.783     |   0.0 |  1.80
Neigh   | 571.59     | 571.59     | 571.59     |   0.0 | 65.12
Comm    | 0.24899    | 0.24899    | 0.24899    |   0.0 |  0.03
Output  | 2.4607     | 2.4607     | 2.4607     |   0.0 |  0.28
Modify  | 35.613     | 35.613     | 35.613     |   0.0 |  4.06
Other   |            | 2.438      |            |       |  0.28

Nlocal:           1001 ave        1001 max        1001 min
Histogram: 1 0 0 0 0 0 0 0 0 0
Nghost:              0 ave           0 max           0 min
Histogram: 1 0 0 0 0 0 0 0 0 0
Neighs:         216143 ave      216143 max      216143 min
Histogram: 1 0 0 0 0 0 0 0 0 0

Total # of neighbors = 216143
Ave neighs/atom = 215.92707
Ave special neighs/atom = 1.998002
Neighbor list builds = 6111
Dangerous builds = 0

# This simulation is done
# Move onto the next one
clear
  using 2 OpenMP thread(s) per MPI task
package omp 0
using multi-threaded neighbor list subroutines
next f
jump SELF

###
# Reference paper:
# K. Kremer and G. S. Grest
# Dynamics of entangled linear polymer melts: A molecular-dynamics simulation
# J Chem Phys 92, 5057 (1990)

##################################
# MIHIR: for branched polymers
# LJ minimum first to expand and explore, then collapse
###

###
# Looping through the various N3B4 polymers to simulate,
# define variables to switch through
variable f index bb40nuc3bl10bn4d30tot100V2 bb80nuc3bl20bn4d30tot200V2 bb120nuc3bl30bn4d30tot300V2 bb160nuc3bl40bn4d30tot400V2 bb200nuc3bl50bn4d30tot500V2 bb240nuc3bl60bn4d30tot600V2 bb280nuc3bl70bn4d30tot700V2 bb320nuc3bl80bn4d30tot800V2 bb360nuc3bl90bn4d30tot900V2 bb400nuc3bl100bn4d30tot1000V2 bb440nuc3bl110bn4d30tot1100V2 bb480nuc3bl120bn4d30tot1200V2
# variable f index bb40nuc3bl10bn4d30tot100 bb80nuc3bl20bn4d30tot200 bb120nuc3bl30bn4d30tot300 bb160nuc3bl40bn4d30tot400 bb200nuc3bl50bn4d30tot500 bb240nuc3bl60bn4d30tot600 bb280nuc3bl70bn4d30tot700 bb320nuc3bl80bn4d30tot800 bb360nuc3bl90bn4d30tot900 bb400nuc3bl100bn4d30tot1000 bb440nuc3bl110bn4d30tot1100 bb480nuc3bl120bn4d30tot1200
###


###
# Box and units  (use LJ units and periodic boundaries)
###

units lj
log N3B4/trial2/logs/$f.log
log N3B4/trial2/logs/bb440nuc3bl110bn4d30tot1100V2.log
