#atom_style bond #no stiffness
atom_style angle #with stiffness

boundary        p p p
###
# Pair interactions require lists of neighbours to be calculated
###

#neighbor 0.3 bin
neighbor 4 bin

neigh_modify every 1 delay 1 check yes
atom_modify sort 0 0
### Generate RESTART file, SPECIAL format, not a .txt file ###
### Useful if simulation crashes ###

restart 1000000 N3B4/trial2/restarts/$f.restart
restart 1000000 N3B4/trial2/restarts/bb480nuc3bl120bn4d30tot1200V2.restart
#############################



### READ "start" data file ###

read_data N3B4/trial2/dats2/$f.dat
read_data N3B4/trial2/dats2/bb480nuc3bl120bn4d30tot1200V2.dat
Reading data file ...
  orthogonal box = (-1000 -1000 -1000) to (1000 1000 1000)
  1 by 1 by 1 MPI processor grid
  reading atoms ...
  1201 atoms
  scanning bonds ...
  3 = max bonds/atom
  scanning angles ...
  6 = max angles/atom
  reading bonds ...
  1200 bonds
  reading angles ...
  1208 angles
Finding 1-2 1-3 1-4 neighbors ...
  special bond factors lj:    0        0        0       
  special bond factors coul:  0        0        0       
     4 = max # of 1-2 neighbors
     4 = max # of 1-3 neighbors
     8 = max # of 1-4 neighbors
    12 = max # of special neighbors
  special bonds CPU = 0.002 seconds
  read_data CPU = 0.228 seconds

######################

### READ "REstart" data file ###

######################



###
# Define groups (atom type 1 is group 'all')
###
group all type 1
1201 atoms in group all


###
# Dump configs - "simple dumpings"
###

###
# Dump configs + box coords
###

dump   1   all   custom   1000  N3B4/trial2/trjs/$f.lammpstrj  id  x y z  ix iy iz
dump   1   all   custom   1000  N3B4/trial2/trjs/bb480nuc3bl120bn4d30tot1200V2.lammpstrj  id  x y z  ix iy iz
dump_modify   1   format line "%d %.5f %.5f %.5f %d %d %d"

########################################################################


###################################################################
# Stiffness term
#
# E = K * (1+cos(theta)), K>0
#
angle_style   cosine
#change this coefficient to change stiffness (e.g. 1,5,10)
angle_coeff   1 1.0
###################################################################

###################################################################
# Pair interaction between non-bonded atoms
#
#  Lennard-Jones 12-6 potential with cutoff:
#  potential E=4epsilon[ (sigma/r)^12 - (sigma/r)^6]  for r<r_cut
#
#  1.12246 = 2^(1/6) is the minimum of the potential


pair_style      lj/cut 1.12246152962189
#pair_style      lj/cut 3

#
#  pair_modify shift yes adds a constant to the potential such

#  that E(r_cut)=0. Forces remains unchanged.
#

pair_modify     shift yes

#
#  pair_coeff for lj/cut, specify 4:
#    * atom type interacting with
#    * atom type
#    * epsilon (energy units)
#    * sigma (distance units)
#

pair_coeff      1 1 1.0 1.0
###################################################################

###################################################################
# Pair interaction between non-bonded atoms
#
#  soft potential, for PUSHING apart overlapping atoms
#  potential E=A*(1 + cos(pi*r/r_c))
#
#  1.12246 = 2^(1/6) is the cut-off r_c

#pair_style     soft 1.12246152962189

#
#  pair_coeff for soft, specify 3:
#    * atom type interacting with
#    * atom type
#    * A
#
#

#pair_coeff      1 1 100.0
###################################################################

###################################################################
# Pair interaction between bonded atoms
#
# Fene potential + Lennard Jones 12-6:

#
#  E= - 0.5 K R0^2 ln[ 1- (r/R0)^2]
#     + 4epsilon[ (sigma/r)^12 - (sigma/r)^6] + epsilon
#

bond_style   fene


#
# For style fene, specify:
#   * bond type
#   * K (energy/distance^2)
#   * R0 (distance)
#   * epsilon (energy)  (LJ component)
#   * sigma (distance)  (LJ component)
#


special_bonds fene #<=== I M P O R T A N T (new command)
Finding 1-2 1-3 1-4 neighbors ...
  special bond factors lj:    0        1        1       
  special bond factors coul:  0        1        1       
     4 = max # of 1-2 neighbors
    12 = max # of special neighbors
  special bonds CPU = 0.001 seconds

bond_coeff   1   30   2   1.0   1.0


###################################################

###################################################################
# Pair interaction between bonded atoms
#
# Harmonic potential:
#
#  E= K * (R-R0)^2
#

#bond_style   harmonic

#
# For style harmonic, specify:
#   * bond type
#   * K (energy/distance^2)
#   * R0 (distance)
#

#bond_coeff   1   60.0   1.0
#bond_coeff   2   harmonic 0.1   1.0

###################################################
compute 1 all gyration
variable rog equal c_1
#compute 2 all coord/atom cutoff 1.1

#dump 2 all custom 10000 contact_number.dump id c_2


###
# Set up fixes
###
thermo_style   custom   step  temp enthalpy c_1
fix 1 all nve   ###NVE ensemble

fix 2 all   langevin   1.0 1.0 1.0  778655   ###Langevin integrator Tstart Tstop 1/friction rndseed


##### Sample thermodynamic info  (temperature, energy, pressure, etc.) #####
thermo 1000









############################################################################

###
# set timestep of integrator

timestep 0.01

###
# run integration for a number of steps
###
#run 0
#variable r equal c_1
#if "$r < 63.1" then "quit 1"

# lj potential minimum, cause molecule to explore
run 100000
Generated 0 of 0 mixed pair_coeff terms from geometric mixing rule
Last active /omp style is angle_style cosine/omp
Neighbor list info ...
  update: every = 1 steps, delay = 1 steps, check = yes
  max neighbors/atom: 2000, page size: 100000
  master list distance cutoff = 5.1224615
  ghost atom cutoff = 5.1224615
  binsize = 2.5612308, bins = 781 781 781
  1 neighbor lists, perpetual/occasional/extra = 1 0 0
  (1) pair lj/cut/omp, perpetual
      attributes: half, newton on, omp
      pair build: half/bin/newton/omp
      stencil: half/bin/3d
      bin: standard
WARNING: Communication cutoff 5.12246152962189 is shorter than a bond length based estimate of 5.455. This may lead to errors. (src/comm.cpp:723)
Per MPI rank memory allocation (min/avg/max) = 1862 | 1862 | 1862 Mbytes
   Step          Temp         Enthalpy         c_1      
         0   0              13.26561       104.71188    
      1000   1.0582359      18.20362       104.14594    
      2000   1.0229628      18.144533      103.44603    
      3000   1.0563743      18.464323      102.92817    
      4000   1.0266854      18.545267      102.53153    
      5000   0.95171119     18.378377      102.08911    
      6000   0.9853917      18.631272      101.45561    
      7000   1.0441972      18.952126      100.9773     
      8000   0.99851353     19.132679      100.36214    
      9000   1.0084901      19.022627      99.994233    
     10000   1.0198172      18.92777       99.596215    
     11000   1.0067746      19.244888      99.295013    
     12000   1.0220136      19.23212       99.211114    
     13000   0.98909639     19.019319      98.856444    
     14000   0.9598121      19.622695      98.560041    
     15000   1.0075419      19.246516      98.344155    
     16000   1.0009801      19.51189       98.247768    
     17000   0.98217767     19.84059       98.024067    
     18000   0.98871307     19.063178      97.794853    
     19000   0.96462111     19.11195       97.398685    
     20000   1.0190542      19.125391      97.191909    
     21000   0.95803402     19.580103      96.862998    
     22000   0.97444798     19.394368      96.478954    
     23000   1.0086199      19.740287      96.344875    
     24000   1.0162825      19.775345      96.29197     
     25000   1.0245199      19.217128      96.040575    
     26000   1.0042098      19.898323      95.990929    
     27000   0.97007472     19.715291      95.804653    
     28000   0.994205       19.350296      95.757481    
     29000   0.99371854     19.71692       95.741145    
     30000   0.98237555     20.021385      95.38391     
     31000   0.99628141     19.610894      94.961089    
     32000   1.0122225      19.550812      94.512355    
     33000   1.0205869      19.583656      94.474709    
     34000   0.96555975     19.749873      94.297212    
     35000   1.0244025      19.640995      94.178505    
     36000   0.98011567     19.772843      93.947973    
     37000   1.0199119      19.753478      93.697503    
     38000   0.98267431     19.769969      93.456937    
     39000   0.98941038     19.71002       93.578254    
     40000   0.98735523     19.814415      93.400388    
     41000   1.0059214      19.803462      93.130614    
     42000   1.0329172      20.19125       92.959927    
     43000   1.007901       19.592723      92.851855    
     44000   1.0145076      20.280757      92.496417    
     45000   1.0130291      19.863531      92.395885    
     46000   0.98477975     20.30403       92.156613    
     47000   0.99213102     19.994774      92.033708    
     48000   1.0047614      20.548546      91.802789    
     49000   1.0036165      19.683187      91.574064    
     50000   0.97767051     20.020009      91.547937    
     51000   1.0044859      20.40455       91.480083    
     52000   1.0466984      20.291978      91.386746    
     53000   1.0030948      19.887152      91.022563    
     54000   1.0199551      19.894134      90.693088    
     55000   1.0219011      20.039331      90.754783    
     56000   1.0110689      20.203976      90.472997    
     57000   0.97419481     20.407924      90.29954     
     58000   0.99096781     20.10782       89.946215    
     59000   0.9501714      19.630659      89.844105    
     60000   0.99073962     19.833794      89.707374    
     61000   1.000281       20.029095      89.768983    
     62000   1.0007403      20.002491      89.493928    
     63000   1.0227124      19.94323       89.423558    
     64000   0.96657392     19.507394      89.115923    
     65000   1.0185456      20.27961       89.241068    
     66000   0.94684326     20.248441      89.156212    
     67000   1.0100171      20.219088      89.195532    
     68000   0.98333965     19.748602      88.996432    
     69000   1.0286138      20.002943      89.148196    
     70000   0.99861033     20.19225       89.255477    
     71000   0.97326277     20.278814      89.097448    
     72000   1.0178829      19.848442      88.96019     
     73000   1.0206732      19.849493      88.790081    
     74000   0.99779537     20.092289      88.665057    
     75000   0.99261476     19.890104      88.317298    
     76000   1.007455       20.21828       88.301235    
     77000   1.0201983      20.358825      88.164428    
     78000   0.97445839     19.866786      88.030437    
     79000   0.98370886     20.26513       87.909506    
     80000   0.98445676     20.156483      87.595686    
     81000   0.98806039     20.207211      87.477833    
     82000   1.0038971      19.943706      87.491092    
     83000   0.96752024     19.926085      87.535088    
     84000   0.94298767     19.699148      87.320153    
     85000   0.96750766     19.977015      87.272213    
     86000   1.0065575      20.052426      87.176081    
     87000   0.97134562     19.771786      87.031211    
     88000   0.99628223     20.413377      86.808337    
     89000   0.98327195     20.195851      86.672077    
     90000   0.9801482      20.410804      86.866533    
     91000   1.000721       19.99475       86.745006    
     92000   1.0325685      19.991607      86.692865    
     93000   0.98881524     20.391302      86.647316    
     94000   1.0150027      20.285932      86.571804    
     95000   1.0293313      20.262781      86.545483    
     96000   0.99008363     20.430092      86.422343    
     97000   0.97492486     20.23374       86.295889    
     98000   0.96312529     20.347624      86.050603    
     99000   0.96611807     19.654458      85.80222     
    100000   0.97278797     19.897086      85.794286    
Loop time of 345.438 on 2 procs for 100000 steps with 1201 atoms

Performance: 250117.052 tau/day, 289.487 timesteps/s
103.7% CPU use with 1 MPI tasks x 2 OpenMP threads

MPI task timing breakdown:
Section |  min time  |  avg time  |  max time  |%varavg| %total
---------------------------------------------------------------
Pair    | 1.4806     | 1.4806     | 1.4806     |   0.0 |  0.43
Bond    | 2.7818     | 2.7818     | 2.7818     |   0.0 |  0.81
Neigh   | 334.32     | 334.32     | 334.32     |   0.0 | 96.78
Comm    | 0.038764   | 0.038764   | 0.038764   |   0.0 |  0.01
Output  | 0.39126    | 0.39126    | 0.39126    |   0.0 |  0.11
Modify  | 6.0074     | 6.0074     | 6.0074     |   0.0 |  1.74
Other   |            | 0.4167     |            |       |  0.12

Nlocal:           1201 ave        1201 max        1201 min
Histogram: 1 0 0 0 0 0 0 0 0 0
Nghost:              0 ave           0 max           0 min
Histogram: 1 0 0 0 0 0 0 0 0 0
Neighs:           8089 ave        8089 max        8089 min
Histogram: 1 0 0 0 0 0 0 0 0 0

Total # of neighbors = 8089
Ave neighs/atom = 6.7352206
Ave special neighs/atom = 1.9983347
Neighbor list builds = 1167
Dangerous builds = 0

# Replace lj potential, now collapse
pair_style      lj/cut 3

# Cutoff simul when gyration under 7
# Variable created with equal requires v_ + 'name'
fix 3 all halt 1000 v_rog < 7

run 3000000
Generated 0 of 0 mixed pair_coeff terms from geometric mixing rule
Last active /omp style is angle_style cosine/omp
Per MPI rank memory allocation (min/avg/max) = 1862 | 1862 | 1862 Mbytes
   Step          Temp         Enthalpy         c_1      
    100000   0.97278797     19.194028      85.794286    
    101000   0.97647055     19.493588      85.728644    
    102000   0.98322033     19.44581       85.564301    
    103000   1.0138721      19.870432      85.375231    
    104000   1.0182872      19.162709      84.882512    
    105000   1.0028356      19.28092       84.87112     
    106000   0.9708967      19.48997       84.767577    
    107000   0.99180431     19.562688      84.566267    
    108000   1.0286426      19.554551      84.625959    
    109000   0.97755636     19.457615      84.55799     
    110000   1.0219157      19.657522      84.546492    
    111000   0.97995584     19.516208      84.263719    
    112000   1.0245616      19.246868      84.130545    
    113000   1.0169306      19.386489      84.11375     
    114000   1.0203549      19.73955       83.892082    
    115000   1.0220437      19.714666      83.775987    
    116000   0.99909256     19.310672      83.612769    
    117000   1.0054702      19.410549      83.518528    
    118000   1.0087408      19.349156      83.266818    
    119000   1.0073709      18.795796      83.015421    
    120000   1.0226537      18.940598      82.870659    
    121000   1.0039214      18.980073      82.724668    
    122000   1.0280632      19.220356      82.719204    
    123000   0.99896473     19.383428      82.73106     
    124000   1.0227821      18.909619      82.618075    
    125000   1.023691       19.253982      82.571972    
    126000   0.99437178     19.405893      82.294896    
    127000   1.0232326      19.167356      81.958947    
    128000   0.98631292     18.75378       81.795437    
    129000   1.0193773      19.418271      81.589232    
    130000   1.0204182      19.276952      81.477611    
    131000   0.97447353     18.686533      81.264876    
    132000   0.97383851     19.590213      81.124406    
    133000   1.0004131      19.583298      80.925016    
    134000   0.99760827     19.290651      80.69982     
    135000   1.0475338      19.158582      80.594226    
    136000   0.97904899     18.918555      80.659426    
    137000   0.98307922     18.79503       80.497605    
    138000   0.98487283     18.63666       80.307059    
    139000   0.99233082     19.696235      80.255094    
    140000   1.0036404      18.799868      80.099275    
    141000   1.0170198      19.387802      80.125998    
    142000   1.0064887      19.025492      80.060056    
    143000   1.0358175      18.827376      79.859951    
    144000   1.0197373      18.310928      79.878477    
    145000   1.0295441      19.159367      79.723464    
    146000   1.0075647      18.786416      79.564693    
    147000   0.99664692     18.702915      79.48045     
    148000   0.99327019     18.882164      79.441492    
    149000   0.99574877     18.916897      79.38592     
    150000   1.0206058      18.445683      79.127796    
    151000   1.0342149      18.88053       79.049848    
    152000   1.0752819      18.682593      78.896878    
    153000   0.97450548     18.962442      78.718517    
    154000   1.0277486      18.905219      78.468199    
    155000   1.0155011      18.559604      78.262056    
    156000   0.96085851     18.485058      78.256402    
    157000   1.0001089      18.441472      78.115362    
    158000   0.99481918     18.46655       77.853273    
    159000   0.9644968      18.614559      77.701608    
    160000   0.97268126     18.574148      77.406597    
    161000   1.0139154      18.886082      77.081486    
    162000   0.98787381     18.732442      76.787923    
    163000   1.012635       19.029253      76.841915    
    164000   1.0244859      18.459245      76.627552    
    165000   0.99886777     18.1879        76.425843    
    166000   0.99772045     18.919768      76.139147    
    167000   1.0166913      18.701566      75.986674    
    168000   1.025182       18.272679      75.783226    
    169000   1.0323353      18.681513      75.615651    
    170000   0.99229686     18.487707      75.429071    
    171000   0.99995986     18.226152      75.335829    
    172000   1.0374115      18.946229      75.174532    
    173000   1.0015639      18.769754      74.785133    
    174000   0.97773382     18.735721      74.576198    
    175000   0.9803571      18.755271      74.602696    
    176000   1.0006102      18.353636      74.489409    
    177000   0.98226264     18.828031      74.464582    
    178000   0.99179373     18.732892      74.418377    
    179000   1.0005244      18.95505       74.408516    
    180000   1.0409684      18.399286      74.191182    
    181000   0.99883016     18.51939       73.886657    
    182000   1.0000499      18.383381      73.736664    
    183000   1.0373144      18.344219      73.512299    
    184000   1.0201258      19.192581      73.496393    
    185000   1.0376178      18.619303      73.277326    
    186000   0.98440808     18.554821      73.117262    
    187000   0.98287241     18.337366      73.031697    
    188000   0.99021743     18.407391      72.967694    
    189000   1.037231       18.675556      72.716981    
    190000   0.97663425     18.614465      72.57457     
    191000   1.027929       18.678356      72.619316    
    192000   0.9916695      18.151121      72.498901    
    193000   0.98343652     19.093785      72.629486    
    194000   0.99462849     18.574032      72.555821    
    195000   1.0082111      18.404066      72.494932    
    196000   0.99486063     18.06004       72.4241      
    197000   1.0025891      18.317169      72.402055    
    198000   1.0240582      18.686262      72.203781    
    199000   1.0067607      18.553527      71.863187    
    200000   0.98183054     18.501918      71.439727    
    201000   0.97052229     18.463973      71.126597    
    202000   1.0358338      18.735902      70.897405    
    203000   0.96209315     18.426383      70.781319    
    204000   1.0089703      18.245669      70.571022    
    205000   1.0245907      18.570775      70.531966    
    206000   0.98507596     19.098456      70.415525    
    207000   1.0129862      18.632464      70.174675    
    208000   0.99586849     18.545536      70.187975    
    209000   0.98838986     18.704229      69.961235    
    210000   1.0172983      17.850116      69.83313     
    211000   0.97218672     18.202018      69.815172    
    212000   1.0140124      18.703714      69.662813    
    213000   1.001251       18.627215      69.380472    
    214000   1.0420612      18.044434      69.269475    
    215000   1.0034561      18.04694       69.34606     
    216000   1.0190316      18.429441      69.26286     
    217000   1.0019965      18.365676      69.001785    
    218000   0.98995129     18.319761      68.88786     
    219000   0.99302287     18.011672      68.593033    
    220000   0.96483477     18.057391      68.343568    
    221000   0.99870884     18.173789      68.211504    
    222000   0.99623073     18.352916      68.205141    
    223000   0.98588447     18.057777      68.039921    
    224000   1.031364       18.131944      67.854231    
    225000   1.0196935      18.163513      67.758781    
    226000   1.0125427      18.390895      67.650801    
    227000   1.0085184      18.191247      67.536606    
    228000   0.99803702     18.135237      67.244284    
    229000   1.0152403      17.786408      67.374628    
    230000   1.0377818      18.109191      67.288387    
    231000   1.0262466      17.523818      66.970143    
    232000   0.98773139     17.270121      66.579211    
    233000   0.97992773     17.896226      66.421219    
    234000   1.0131623      18.246189      66.30942     
    235000   0.9676062      17.589736      66.23438     
    236000   0.98139708     18.112075      66.208753    
    237000   1.0062039      18.043356      66.040844    
    238000   1.0318259      18.210059      65.949318    
    239000   0.97822796     18.059522      65.764739    
    240000   1.0174873      17.919752      65.675268    
    241000   1.0453793      17.779839      65.661408    
    242000   0.99601409     17.867496      65.546937    
    243000   0.96529223     17.241511      65.490034    
    244000   1.0119959      17.648275      65.170417    
    245000   1.0289064      17.812635      65.048901    
    246000   0.99293147     18.293281      65.064496    
    247000   1.0124017      17.07613       64.859118    
    248000   1.0074395      17.702946      64.895142    
    249000   0.97075595     17.755812      64.757711    
    250000   1.007027       17.886942      64.74148     
    251000   0.98359195     17.926059      64.564932    
    252000   1.0023148      18.139202      64.442471    
    253000   1.0160796      17.952106      64.074598    
    254000   1.0074641      17.801321      63.932847    
    255000   1.0420705      17.946194      64.006335    
    256000   1.0403811      17.808582      64.07434     
    257000   0.99847787     17.743075      63.92237     
    258000   1.0218017      17.591219      63.769319    
    259000   1.0260607      17.558548      63.730422    
    260000   0.95393095     17.959811      63.605957    
    261000   1.0008626      17.592422      63.554705    
    262000   0.99906576     17.374356      63.352396    
    263000   1.0401999      17.839906      63.234779    
    264000   1.0203346      18.090476      63.223084    
    265000   0.98588021     17.545887      63.146689    
    266000   1.0126112      17.561721      63.146394    
    267000   1.0163008      17.919418      63.043839    
    268000   0.96947414     17.393031      63.107172    
    269000   1.0306178      17.688652      63.139475    
    270000   1.0230584      18.072485      63.140043    
    271000   0.99401266     17.342006      63.259294    
    272000   1.0477163      17.703239      63.217358    
    273000   1.0059449      17.762411      63.04795     
    274000   0.97483112     17.51156       63.065785    
    275000   1.0279003      18.038698      62.85242     
    276000   0.9739974      17.840028      62.733403    
    277000   1.0067873      17.565473      62.793333    
    278000   0.97910656     17.937103      62.801073    
    279000   1.0107873      17.267955      62.794401    
    280000   1.0088067      18.046958      62.649382    
    281000   0.99821723     17.748927      62.726253    
    282000   0.97871993     17.789174      62.57108     
    283000   0.99137709     17.361552      62.537834    
    284000   1.0098071      17.662847      62.371578    
    285000   0.99101425     17.809362      62.445262    
    286000   1.0143773      17.611444      62.289476    
    287000   1.0025113      17.768326      62.334356    
    288000   0.99984096     17.585266      62.050275    
    289000   1.0132471      17.235045      61.985029    
    290000   0.98344884     17.684606      61.99193     
    291000   0.95125588     16.851607      61.539859    
    292000   0.9763934      17.593405      61.412123    
    293000   0.97037906     17.207906      61.134228    
    294000   0.93183317     17.073612      61.045004    
    295000   0.98652829     17.674697      60.798127    
    296000   1.0115635      16.966099      60.734273    
    297000   1.0302582      18.240356      60.687979    
    298000   1.0129229      17.559159      60.793023    
    299000   0.96678729     17.743346      60.666737    
    300000   0.98062884     17.406675      60.390906    
    301000   0.9761084      16.963683      60.369896    
    302000   0.99402092     17.493933      60.488254    
    303000   1.0019689      17.783144      60.494804    
    304000   1.0351198      18.001501      60.420729    
    305000   1.0014754      17.794411      60.206999    
    306000   1.0174668      17.03037       60.228583    
    307000   1.0228342      17.617283      60.417399    
    308000   1.0123517      18.180859      60.383616    
    309000   1.0339922      17.804796      60.343715    
    310000   0.99537289     17.7128        60.370086    
    311000   0.99441889     18.018564      60.450098    
    312000   0.96696797     17.983127      60.41687     
    313000   0.99598907     17.931933      60.442812    
    314000   1.0045745      17.867145      60.607082    
    315000   1.0624874      17.343961      60.623994    
    316000   1.0253581      17.301512      60.462252    
    317000   0.9379005      17.695465      60.64011     
    318000   0.99253411     17.681632      60.69194     
    319000   1.018156       17.360281      60.550679    
    320000   1.0138305      17.393773      60.329981    
    321000   1.039581       17.394746      60.142696    
    322000   1.0068661      17.477778      59.99912     
    323000   1.0454248      17.543432      60.043275    
    324000   1.0453021      17.610611      59.962864    
    325000   0.99647413     17.374872      59.953807    
    326000   1.0180519      17.656457      59.884259    
    327000   1.0527455      17.90263       59.741584    
    328000   0.97365542     17.650142      59.663736    
    329000   1.0002564      17.379337      59.553954    
    330000   0.98384879     17.866028      59.381355    
    331000   1.0125099      17.278943      59.313118    
    332000   0.95139742     17.855688      59.2467      
    333000   0.97946374     18.201328      59.19647     
    334000   1.0032522      17.340537      59.261483    
    335000   1.000327       17.928822      59.239789    
    336000   1.0067855      17.766934      59.270586    
    337000   1.0209034      17.359914      59.317237    
    338000   0.96310581     17.852133      59.136449    
    339000   0.99428174     17.359764      59.000512    
    340000   0.98287322     17.588342      58.918664    
    341000   1.0333921      17.572097      58.939678    
    342000   0.97131606     17.949085      58.921541    
    343000   0.97296015     17.525362      58.85284     
    344000   0.98785936     17.699844      58.664095    
    345000   1.0079103      17.620541      58.516031    
    346000   1.0163265      17.540858      58.655149    
    347000   0.97229057     17.536229      58.384843    
    348000   1.0039179      17.981703      58.593086    
    349000   0.98082554     17.512685      58.426476    
    350000   1.053042       17.346019      58.157915    
    351000   1.0281011      17.274048      58.153779    
    352000   0.97407096     17.688207      57.740529    
    353000   0.97857202     17.484029      57.783742    
    354000   1.0164734      17.669097      57.629073    
    355000   0.96926504     17.410205      57.60031     
    356000   1.0507451      17.566217      57.579066    
    357000   1.0084058      17.366969      57.673527    
    358000   0.96382185     17.224019      57.381775    
    359000   1.0195911      17.213391      57.26072     
    360000   1.0374733      17.580519      57.216733    
    361000   0.96677419     17.748595      57.259248    
    362000   1.0081265      17.853164      57.250815    
    363000   0.98512056     17.575842      56.985591    
    364000   0.97733988     17.379513      56.860424    
    365000   0.98440897     17.966364      56.825315    
    366000   1.0126685      17.72473       56.634286    
    367000   0.98390026     17.382713      56.472086    
    368000   1.0038627      17.520209      56.505956    
    369000   0.97237263     17.612249      56.397795    
    370000   1.0055296      17.065025      56.232719    
    371000   1.0088318      18.030196      56.244555    
    372000   0.98517164     17.701939      56.056923    
    373000   0.96777196     17.557019      56.080808    
    374000   0.96387711     17.360194      56.088728    
    375000   1.0518353      17.916783      56.029729    
    376000   1.0429714      17.555151      55.916867    
    377000   1.0094758      17.782255      55.829582    
    378000   1.0139624      17.773836      55.737731    
    379000   0.99785875     17.642346      55.377928    
    380000   0.98962742     17.452767      55.061991    
    381000   1.0324991      17.470286      54.944844    
    382000   1.0294076      17.714716      54.75496     
    383000   0.99877706     17.433432      54.680446    
    384000   0.99178328     17.198589      54.787619    
    385000   1.0310331      18.316252      54.860523    
    386000   1.0217012      17.645814      54.832695    
    387000   0.99290869     17.650664      54.835818    
    388000   0.98894709     17.387314      54.510691    
    389000   0.9878676      17.584351      54.501631    
    390000   1.0051783      17.514832      54.434247    
    391000   0.96300116     17.486681      54.067625    
    392000   1.0041399      17.397364      53.910516    
    393000   1.0136655      17.571102      53.831585    
    394000   1.0218         17.462885      53.772479    
    395000   0.9976101      18.148211      53.806467    
    396000   0.99040344     17.368308      53.680349    
    397000   0.98117452     17.818846      53.683204    
    398000   1.0031381      17.730465      53.598271    
    399000   0.98022208     17.391395      53.327026    
    400000   0.98148734     16.878485      53.128195    
    401000   1.0116259      17.346284      53.169033    
    402000   0.99947841     17.583748      53.10312     
    403000   1.0119592      17.537239      53.116949    
    404000   0.97939235     17.425624      53.040464    
    405000   0.98281753     17.474485      52.93259     
    406000   1.0109166      18.087057      52.930695    
    407000   0.97523457     18.617077      53.020613    
    408000   1.0037588      17.928135      53.126876    
    409000   1.0348678      17.851753      52.932614    
    410000   1.0404386      17.432948      53.021342    
    411000   0.99889505     17.672593      53.045092    
    412000   0.99432088     17.893867      52.965175    
    413000   0.99776497     17.357826      52.908628    
    414000   1.0059817      17.806847      52.793022    
    415000   0.98935317     17.532901      52.841483    
    416000   1.0220586      17.236558      52.649227    
    417000   0.98046451     17.259124      52.408641    
    418000   0.99501817     18.068804      52.447788    
    419000   1.0117191      18.135772      52.337768    
    420000   0.94723392     17.164265      52.487166    
    421000   0.99664197     16.973766      52.330289    
    422000   1.0050334      17.474128      52.167353    
    423000   0.94728982     17.585931      51.965203    
    424000   1.0142551      17.772297      51.926866    
    425000   1.0118549      17.338854      51.900497    
    426000   1.0145911      17.600844      51.748616    
    427000   1.0282262      17.867031      51.59225     
    428000   0.97697104     17.393417      51.55258     
    429000   1.0447981      17.98786       51.4747      
    430000   1.0042142      16.978617      51.509256    
    431000   1.0010194      17.960486      51.349035    
    432000   1.0298604      17.730762      51.173562    
    433000   1.0096021      17.727138      51.404232    
    434000   0.98678395     17.748598      51.474094    
    435000   0.98562425     17.650755      51.367529    
    436000   0.98632868     17.588393      51.285402    
    437000   1.0124541      17.56115       51.179109    
    438000   1.0008555      17.483772      51.052992    
    439000   0.9683748      18.03986       50.874198    
    440000   0.94923678     17.348999      50.662049    
    441000   0.97122982     17.286518      50.610542    
    442000   1.0096255      17.728895      50.448368    
    443000   1.0355387      17.906213      50.336813    
    444000   0.99528697     17.327037      50.419448    
    445000   1.0138681      17.466496      50.437638    
    446000   0.98575268     17.295353      50.474791    
    447000   1.0023544      17.345907      50.522167    
    448000   0.96328736     17.317228      50.445257    
    449000   0.99196164     17.0024        50.35101     
    450000   1.0102927      17.639749      50.262381    
    451000   0.97460358     17.59851       50.187139    
    452000   0.96858061     17.872786      50.202347    
    453000   0.9940243      17.868039      50.27766     
    454000   0.96221154     17.364432      50.118836    
    455000   0.9757025      17.958393      50.058346    
    456000   1.0066683      18.372195      49.860419    
    457000   0.97643811     17.299733      49.63225     
    458000   1.0204378      17.187942      49.373302    
    459000   0.97948696     17.785861      49.224621    
    460000   0.9935237      17.765857      49.197577    
    461000   0.98775066     17.266197      49.052824    
    462000   0.99881007     17.341034      48.936206    
    463000   0.99600705     17.935032      48.646862    
    464000   1.0016164      17.859306      48.491593    
    465000   1.0368944      18.162199      48.506761    
    466000   0.99434929     17.581547      48.498753    
    467000   1.0165353      17.64192       48.301487    
    468000   1.013658       17.482912      48.071793    
    469000   1.0314574      17.334369      48.139497    
    470000   1.0370163      17.271155      48.139884    
    471000   0.98176371     17.671633      47.964398    
    472000   0.98390657     17.140707      48.038496    
    473000   1.0335687      17.40157       48.101966    
    474000   0.98339397     17.406115      48.029591    
    475000   1.0082703      17.795453      48.217525    
    476000   0.95068488     17.270832      48.159275    
    477000   1.0051759      17.947256      48.106796    
    478000   0.98729106     17.564614      48.100194    
    479000   1.0383991      17.3249        48.001151    
    480000   1.0022211      17.963796      47.818393    
    481000   1.0181477      17.428941      47.8236      
    482000   0.99969176     17.326749      47.774444    
    483000   0.98261197     17.919165      47.623795    
    484000   1.0266067      17.376519      47.559       
    485000   0.99299599     17.878751      47.649893    
    486000   0.95112242     17.439632      47.457879    
    487000   0.96655629     17.675597      47.4203      
    488000   1.0032101      17.300116      47.287403    
    489000   1.0575312      16.866321      47.211941    
    490000   1.0060333      17.907795      46.94527     
    491000   1.0347406      17.575655      47.008618    
    492000   1.0072305      17.748086      46.794708    
    493000   1.0313858      16.993815      46.820819    
    494000   1.0053757      17.727526      46.925671    
    495000   1.0328573      17.578788      46.785298    
    496000   1.0179379      17.169249      46.61247     
    497000   0.9703811      17.378919      46.691746    
    498000   1.0377382      18.254998      46.769291    
    499000   1.0178161      17.715176      46.629561    
    500000   1.0028433      17.274735      46.512903    
    501000   1.0049523      17.416523      46.230753    
    502000   1.0255487      17.366368      46.032771    
    503000   0.94545321     17.35171       45.834708    
    504000   1.0305934      17.610725      45.524003    
    505000   0.95208662     17.120674      45.734359    
    506000   0.96035843     16.771864      45.634852    
    507000   1.0013957      17.815875      45.611499    
    508000   1.0186698      17.395588      45.55111     
    509000   0.98995433     18.01208       45.35821     
    510000   1.0026823      17.718498      45.354558    
    511000   1.0169757      17.498355      45.435688    
    512000   1.0239612      17.96533       45.235654    
    513000   1.0030931      17.356163      44.98086     
    514000   1.0320031      16.968983      44.922015    
    515000   1.0316319      17.423885      44.896532    
    516000   1.0070839      17.589878      44.850842    
    517000   0.98847305     17.293654      44.656606    
    518000   1.0320826      17.54224       44.499796    
    519000   1.0154361      17.129524      44.329648    
    520000   1.0197848      17.221115      44.372901    
    521000   1.0175536      17.236954      44.454739    
    522000   1.0219247      17.516814      44.416784    
    523000   0.99776199     17.660268      44.442305    
    524000   1.0308662      17.540926      44.150088    
    525000   0.99637584     17.586337      44.015553    
    526000   0.96560826     17.057515      44.001496    
    527000   1.0318571      17.678892      44.176924    
    528000   1.0243955      17.858592      44.119857    
    529000   1.0001773      17.330281      44.040175    
    530000   1.0303302      17.191393      43.934147    
    531000   0.9826158      17.318387      43.874205    
    532000   0.98781921     17.207175      43.770229    
    533000   0.98021679     17.558658      43.503631    
    534000   1.0091548      17.636289      43.527823    
    535000   1.0135791      17.756376      43.530353    
    536000   1.0163458      17.536127      43.346891    
    537000   0.98549162     17.185968      43.303363    
    538000   1.0092204      17.641388      43.197388    
    539000   1.014723       16.723802      43.071321    
    540000   1.0065481      17.895317      43.417717    
    541000   1.0253726      18.214011      43.149227    
    542000   1.0197235      17.741842      43.101138    
    543000   0.99627405     17.257813      42.891082    
    544000   0.98290631     17.114025      42.739896    
    545000   1.0065527      17.678473      42.628299    
    546000   0.98494502     17.582092      42.618212    
    547000   0.99195327     16.99899       42.499263    
    548000   1.0011392      16.746978      42.415078    
    549000   0.97952686     17.478058      42.534304    
    550000   0.98887701     17.747823      42.256688    
    551000   1.0134129      17.541037      42.289426    
    552000   1.0035185      16.795513      42.415037    
    553000   1.0447049      17.794961      42.483224    
    554000   0.97315973     17.102578      42.14025     
    555000   1.0156991      17.813185      41.840456    
    556000   0.97599298     17.255728      41.933097    
    557000   1.0307361      17.623757      41.765802    
    558000   1.0148212      17.423051      41.578605    
    559000   0.95861788     17.640696      41.438993    
    560000   0.97733094     17.124128      41.565775    
    561000   0.99549811     17.386994      41.721047    
    562000   0.99513658     18.015669      41.679739    
    563000   0.99944812     17.469958      41.531853    
    564000   0.97642135     17.31688       41.712199    
    565000   1.0022784      17.617627      41.602092    
    566000   0.96750365     16.84022       41.561389    
    567000   1.0176462      17.551707      41.426075    
    568000   1.0163041      17.654476      41.28989     
    569000   1.0014039      18.142187      41.353335    
    570000   0.99526304     17.44871       41.32264     
    571000   0.97838081     17.094424      41.111737    
    572000   1.0065305      17.642873      41.200812    
    573000   0.98953453     17.290722      41.226419    
    574000   0.99536247     17.737009      41.043324    
    575000   0.98982039     17.545638      41.011508    
    576000   1.0696353      17.513695      40.899234    
    577000   1.0189615      17.969985      41.016912    
    578000   0.99828547     17.270579      40.931867    
    579000   1.0283993      17.949555      40.88395     
    580000   1.0082267      17.438977      40.693116    
    581000   0.99727614     17.068436      40.446593    
    582000   1.0255338      17.580145      40.450671    
    583000   1.011564       17.863206      40.290747    
    584000   1.0259598      17.992859      40.165177    
    585000   1.0088531      17.260404      39.963547    
    586000   0.96635624     17.418456      39.926381    
    587000   1.0524256      17.934465      39.939938    
    588000   0.96906879     17.516057      39.970743    
    589000   1.0084554      17.396909      39.985643    
    590000   0.99363576     17.706638      39.712366    
    591000   1.0046703      17.179306      39.584926    
    592000   1.0426194      17.347038      39.681132    
    593000   0.98547702     17.568841      39.498293    
    594000   1.016798       17.384047      39.401363    
    595000   0.94576648     17.860352      39.296145    
    596000   0.98928691     17.631445      39.190645    
    597000   1.0029753      17.525277      39.21437     
    598000   0.99151543     16.89091       39.123955    
    599000   1.0035731      17.871685      39.12971     
    600000   0.98874718     17.552142      39.16464     
    601000   0.9893348      17.326025      38.96514     
    602000   0.98829175     17.167149      38.98277     
    603000   1.0178347      16.986675      38.881442    
    604000   0.99108461     17.171815      38.829307    
    605000   0.95966102     17.787106      38.796581    
    606000   0.98247721     17.193392      38.64131     
    607000   1.0416924      16.978485      38.487153    
    608000   0.98460136     17.230684      38.40184     
    609000   1.0158708      17.021554      38.358815    
    610000   0.98492734     17.756414      38.334224    
    611000   1.043052       17.749934      38.420999    
    612000   1.0591567      16.815889      38.222598    
    613000   0.97660819     17.147654      38.171269    
    614000   0.97137309     17.139911      38.071916    
    615000   0.9943351      17.650456      38.068393    
    616000   0.99925106     17.298546      37.948973    
    617000   0.98311129     17.460308      37.922404    
    618000   1.006139       17.802913      37.84106     
    619000   0.99331348     17.019144      37.745306    
    620000   0.993587       16.752501      37.808434    
    621000   0.97753217     17.510615      37.916095    
    622000   0.98086783     17.814554      37.717283    
    623000   1.0020348      16.982385      37.526016    
    624000   0.99853226     17.19899       37.518265    
    625000   0.98714594     17.293758      37.473465    
    626000   0.98419407     17.790473      37.344666    
    627000   0.99348165     17.221072      37.268302    
    628000   1.0042945      17.028708      37.035983    
    629000   0.99164237     16.890311      37.266809    
    630000   0.99831958     17.512503      37.075751    
    631000   1.0041167      17.369958      37.091683    
    632000   0.98744665     17.351447      37.057374    
    633000   1.00857        17.227651      37.029122    
    634000   1.0238706      17.975776      37.059689    
    635000   1.0383866      17.530674      36.980244    
    636000   0.98778774     16.735788      37.029134    
    637000   1.0062007      17.353511      36.881497    
    638000   0.95889919     17.349777      36.944545    
    639000   0.99546221     17.488469      36.662995    
    640000   1.0168436      17.26154       36.656666    
    641000   1.0249547      17.624811      36.466521    
    642000   0.9926836      17.432236      36.575812    
    643000   1.0180192      17.6951        36.560729    
    644000   1.0062374      17.510363      36.701108    
    645000   1.0006168      17.422555      36.640493    
    646000   0.95736119     17.219429      36.724277    
    647000   0.97229533     18.042101      36.547209    
    648000   0.98346879     17.374989      36.555869    
    649000   1.037046       17.785894      36.601139    
    650000   1.0405169      17.314045      36.472019    
    651000   0.97333825     17.124882      36.438188    
    652000   1.0195166      17.167707      36.33555     
    653000   0.9989757      16.663855      36.307401    
    654000   1.0113706      17.682856      36.466022    
    655000   0.98970131     17.171731      36.525401    
    656000   1.0133573      17.601328      36.419208    
    657000   0.96236713     17.38949       36.569432    
    658000   1.0326688      17.283306      36.299477    
    659000   0.99691323     17.116156      36.146728    
    660000   0.99023009     17.255255      36.123878    
    661000   1.0290156      17.7238        36.134312    
    662000   1.0127026      17.271162      36.118862    
    663000   1.0141414      17.813906      35.978982    
    664000   0.97434524     17.563196      36.039923    
    665000   1.0161239      16.854907      35.970061    
    666000   1.0159358      17.830125      35.78167     
    667000   1.0227031      17.651407      35.561409    
    668000   1.0082414      18.155937      35.380592    
    669000   1.0013998      17.075366      35.471795    
    670000   1.0528561      17.534176      35.507899    
    671000   0.99949537     17.518956      35.575446    
    672000   1.0096504      17.074175      35.523696    
    673000   1.0267646      17.095112      35.539941    
    674000   0.97811178     17.402774      35.419984    
    675000   1.0030121      17.329885      35.598747    
    676000   0.99373575     17.326576      35.447286    
    677000   0.99712094     17.199094      35.28159     
    678000   0.9955568      17.307048      35.160497    
    679000   0.98058045     17.130644      35.05952     
    680000   1.0416549      17.540383      34.862716    
    681000   1.037225       17.86176       34.52552     
    682000   0.99410833     17.141779      34.525493    
    683000   1.0143474      17.136054      34.648074    
    684000   1.0047487      17.288525      34.580667    
    685000   0.9731354      17.159061      34.335243    
    686000   0.99191026     17.742319      34.259353    
    687000   1.0232896      17.35473       34.196577    
    688000   1.0435921      17.373969      34.130233    
    689000   1.0697469      18.430313      33.959599    
    690000   0.99815276     17.337135      33.885927    
    691000   1.0135169      17.510834      33.944404    
    692000   0.97170202     17.238311      33.734457    
    693000   1.0346994      17.508597      33.647385    
    694000   1.0046285      17.12223       33.401245    
    695000   1.0056761      17.177903      33.213746    
    696000   0.97117369     16.827668      33.159186    
    697000   1.0176076      17.712435      32.80522     
    698000   0.9849115      17.335286      33.000003    
    699000   1.0034965      16.984314      32.87053     
    700000   1.0107324      17.195756      32.638762    
    701000   0.98740588     17.035933      32.502674    
    702000   1.0023647      17.275463      32.338614    
    703000   0.97269211     16.822411      32.462203    
    704000   1.0320484      17.820087      32.528582    
    705000   0.98713942     17.171493      32.545425    
    706000   0.97422415     17.420394      32.532837    
    707000   1.0158878      17.67689       32.343769    
    708000   0.97785562     17.61804       32.23752     
    709000   0.98330336     16.772398      32.091596    
    710000   1.0090891      17.245765      31.97302     
    711000   1.0240153      17.408098      31.899848    
    712000   0.97530984     17.303544      32.004184    
    713000   0.98290201     17.291224      31.745134    
    714000   0.99498232     17.297658      31.561104    
    715000   1.0059159      17.327572      31.312886    
    716000   1.0359471      17.509358      31.1309      
    717000   1.0096138      16.672684      31.029551    
    718000   0.98782705     17.341263      30.924336    
    719000   0.99540623     17.407279      30.795348    
    720000   0.98969712     17.110279      31.007399    
    721000   1.0025591      17.398321      30.852993    
    722000   1.0234531      17.753537      30.644469    
    723000   1.0140701      16.89666       30.380629    
    724000   0.98358015     16.737574      30.58742     
    725000   0.99173112     16.490006      30.342232    
    726000   1.0076033      17.812807      30.242536    
    727000   1.0152477      18.094383      30.009544    
    728000   0.99433011     17.607644      29.9382      
    729000   1.0189866      17.894148      29.829437    
    730000   0.98535982     17.143361      29.561539    
    731000   1.0329525      17.077262      29.352772    
    732000   1.0042935      17.126018      29.466901    
    733000   0.98834717     17.449864      29.528177    
    734000   1.0097036      17.426226      29.305288    
    735000   0.99301142     17.43612       29.361243    
    736000   1.0287904      17.31203       29.340646    
    737000   1.0456225      17.486308      29.236961    
    738000   1.0101988      16.981786      29.190557    
    739000   0.98943496     17.296921      29.173627    
    740000   0.9794549      16.879611      28.985988    
    741000   1.0042325      16.709983      28.821817    
    742000   0.98767287     17.619819      28.80909     
    743000   0.95101123     17.950943      28.725483    
    744000   0.95555086     16.945615      28.68522     
    745000   0.99770741     16.821075      28.591364    
    746000   1.0353914      17.91199       28.298167    
    747000   1.0078345      17.206593      28.381135    
    748000   1.0642869      18.509572      28.159768    
    749000   1.0123412      17.816995      28.049238    
    750000   1.0036051      17.427374      27.925059    
    751000   0.99411551     17.749614      27.872263    
    752000   0.99149379     17.431007      27.667253    
    753000   1.0533214      17.713591      27.712194    
    754000   1.0281184      16.95814       27.7416      
    755000   0.97853514     17.561167      27.732467    
    756000   0.98270151     16.76912       27.653114    
    757000   1.0511318      17.431103      27.691113    
    758000   1.0116927      17.397785      27.696791    
    759000   0.98954192     16.864038      27.811841    
    760000   0.9813119      17.376505      27.643864    
    761000   0.9887261      17.106229      27.574735    
    762000   0.97770144     17.404952      27.526569    
    763000   1.0050545      17.708604      27.436352    
    764000   1.022634       17.470669      27.483731    
    765000   0.94515156     17.226904      27.289247    
    766000   0.97201981     17.481869      27.303948    
    767000   0.96995634     16.998377      27.265591    
    768000   0.98983403     17.299563      27.32691     
    769000   1.0456374      17.051823      27.28355     
    770000   1.001912       17.578011      27.20846     
    771000   1.0230382      16.793041      27.121879    
    772000   0.97585631     17.117235      27.093625    
    773000   0.99408158     17.488788      26.94516     
    774000   1.0147623      17.396202      27.005931    
    775000   0.99135833     16.945076      27.02906     
    776000   0.98543068     17.318548      27.044561    
    777000   0.9862151      17.073859      26.998673    
    778000   0.98440421     17.448971      26.910721    
    779000   1.0281779      17.100676      27.059888    
    780000   1.0330733      17.571902      27.159512    
    781000   0.99947466     17.364673      27.121921    
    782000   1.0100516      17.693008      27.066871    
    783000   0.98064516     16.963539      26.936111    
    784000   0.97172185     17.223817      26.90791     
    785000   1.0093768      17.369627      26.894154    
    786000   0.99396606     17.461962      26.886212    
    787000   0.94663072     17.260454      26.847493    
    788000   0.95702267     17.109384      26.785212    
    789000   1.0376649      17.015277      26.798736    
    790000   1.0357358      17.21962       26.717206    
    791000   0.97420901     17.113315      26.807635    
    792000   0.98341827     17.769551      26.887057    
    793000   0.99767044     17.564835      26.84669     
    794000   1.0272554      17.458564      26.794062    
    795000   0.97933256     17.550352      26.834482    
    796000   1.0044506      17.171162      26.703168    
    797000   1.025512       17.037229      26.783975    
    798000   0.99887324     17.544733      26.742196    
    799000   0.99188638     16.814159      26.68917     
    800000   0.99746134     17.117995      26.61992     
    801000   0.98059748     17.148274      26.440135    
    802000   1.0129961      17.553136      26.255234    
    803000   1.0416141      17.185676      26.187357    
    804000   1.0083825      17.445713      26.176226    
    805000   0.99881388     17.467049      26.304285    
    806000   0.94754923     17.82925       26.193794    
    807000   0.99913702     17.578954      26.185673    
    808000   1.002071       17.604176      26.210812    
    809000   1.0541159      17.535978      26.191487    
    810000   1.021139       17.300897      26.146523    
    811000   0.95255466     17.37108       26.139102    
    812000   0.99481597     17.496688      26.351288    
    813000   1.006035       17.125648      26.26923     
    814000   0.99434186     17.001955      26.219882    
    815000   0.97346004     17.096252      26.120259    
    816000   0.99659314     17.38397       26.087903    
    817000   1.0261052      17.11257       25.939225    
    818000   0.99037756     16.844179      25.945848    
    819000   1.0094994      17.281929      25.981359    
    820000   0.99609333     17.226591      25.921104    
    821000   0.96274138     17.048977      25.855908    
    822000   0.97361836     17.528499      25.693019    
    823000   0.97150149     16.917984      25.630301    
    824000   1.0362011      17.020568      25.524921    
    825000   1.0511162      17.267235      25.308365    
    826000   0.98666904     17.515819      25.081493    
    827000   0.9586421      17.077292      25.039578    
    828000   1.0005529      17.330923      24.935579    
    829000   0.98564593     17.330681      24.943948    
    830000   1.031077       17.384123      24.900682    
    831000   0.9772014      17.650486      24.61292     
    832000   1.0120459      17.977943      24.59841     
    833000   1.0002935      17.575576      24.554169    
    834000   1.004096       16.742325      24.446122    
    835000   0.97702588     17.182476      24.565796    
    836000   1.0010966      17.511623      24.266858    
    837000   1.0226026      17.104269      24.172571    
    838000   1.0214699      17.173909      24.029867    
    839000   1.0044305      17.268946      24.106789    
    840000   0.99706881     17.004254      24.246805    
    841000   1.0267887      16.843546      24.233763    
    842000   1.0149841      17.029534      24.108151    
    843000   1.0128958      17.044044      24.291337    
    844000   0.9918466      17.644528      24.262116    
    845000   0.99758844     17.293397      24.344855    
    846000   1.0087479      17.543713      24.193094    
    847000   1.0018384      17.347741      23.927156    
    848000   1.0047072      17.54858       23.962946    
    849000   0.97404176     17.590234      23.96527     
    850000   0.99757303     17.195112      23.753979    
    851000   0.9917214      17.497796      23.935294    
    852000   1.0234418      17.386909      23.778914    
    853000   0.96564942     17.630209      23.649168    
    854000   0.9771176      17.226952      23.679662    
    855000   0.99552179     17.222219      23.549168    
    856000   1.0014675      17.232275      23.564138    
    857000   1.0227394      17.84315       23.53337     
    858000   0.99012457     17.406474      23.31921     
    859000   0.97611761     16.986789      23.376182    
    860000   0.9916476      17.362894      23.524002    
    861000   1.0015092      17.113962      23.719102    
    862000   1.0121014      17.328015      23.743458    
    863000   0.98453102     17.128682      23.644549    
    864000   0.98380887     17.370198      23.580631    
    865000   1.0314282      18.254818      23.109102    
    866000   0.98729524     16.754951      22.906398    
    867000   0.9744301      17.786022      23.013381    
    868000   1.0096866      17.501004      23.059971    
    869000   1.0267566      17.555673      23.046895    
    870000   1.0119797      16.904233      22.925828    
    871000   1.0215783      17.564241      22.845817    
    872000   0.98199552     17.49772       22.894578    
    873000   1.0027163      17.373479      22.821372    
    874000   1.0077706      17.544349      22.753538    
    875000   1.0417296      18.133007      22.740231    
    876000   0.96490049     17.298033      22.658939    
    877000   0.98600298     16.681481      22.691248    
    878000   0.99094785     17.37558       22.905635    
    879000   1.0073816      17.245598      22.883695    
    880000   1.0137208      16.827818      22.629871    
    881000   1.0160481      17.595803      22.594134    
    882000   0.99044379     17.659836      22.614652    
    883000   0.99359262     17.095249      22.513617    
    884000   0.96165944     17.051048      22.490876    
    885000   0.97672803     17.351041      22.290785    
    886000   0.98918123     16.960346      22.068064    
    887000   0.98482304     17.612082      22.004552    
    888000   1.0416937      17.559248      21.954027    
    889000   0.99776785     17.413904      21.851486    
    890000   0.96697301     17.258226      21.822922    
    891000   1.0294645      17.378003      21.770038    
    892000   1.011607       16.743623      21.950335    
    893000   1.0246853      17.558045      21.813869    
    894000   0.97902014     17.215544      21.852692    
    895000   0.99008351     17.32233       21.767908    
    896000   0.98877953     17.515896      21.733384    
    897000   0.97728951     17.063004      21.396005    
    898000   1.0229537      17.136092      21.480391    
    899000   1.0160626      17.451365      21.559748    
    900000   0.96539924     16.772952      21.563135    
    901000   1.0021617      16.666614      21.752807    
    902000   0.98850043     17.210502      21.597103    
    903000   0.99415486     17.480182      21.371579    
    904000   0.97287436     17.238462      21.281863    
    905000   1.0230741      16.384257      21.032859    
    906000   1.0247944      16.887338      20.97274     
    907000   1.0051246      16.907625      20.902566    
    908000   0.99451598     17.460988      20.671454    
    909000   1.0203747      17.387998      20.591276    
    910000   0.98359437     16.638023      20.539617    
    911000   1.0160657      17.354783      20.309745    
    912000   1.0430877      17.192645      20.197727    
    913000   1.002385       17.007718      20.148984    
    914000   0.97125939     16.785814      20.304543    
    915000   0.99605849     17.128094      20.422817    
    916000   1.0032078      17.142211      20.439481    
    917000   1.0171189      17.494761      20.440674    
    918000   0.99179998     17.276503      20.40315     
    919000   1.0232114      17.315141      20.42497     
    920000   1.0049245      17.228504      20.323094    
    921000   0.98819945     17.47199       20.173669    
    922000   1.0392663      17.196625      20.100674    
    923000   0.97384508     17.0179        20.124147    
    924000   1.0106201      17.64524       20.043928    
    925000   0.95725796     16.624298      19.859321    
    926000   1.0196461      17.561476      19.73339     
    927000   0.99984269     16.974669      19.749965    
    928000   1.012469       16.772754      19.560393    
    929000   1.0174077      17.224542      19.488655    
    930000   1.0577264      17.384158      19.440954    
    931000   0.99777088     16.99962       19.497137    
    932000   1.0074434      17.564381      19.493141    
    933000   0.93552186     16.865063      18.998644    
    934000   1.0002665      17.159684      19.037972    
    935000   0.98294746     16.978172      19.012249    
    936000   0.98868762     17.085163      18.729356    
    937000   1.0397561      17.285961      18.654152    
    938000   1.0185144      17.016934      18.77899     
    939000   1.0593887      16.068465      18.603936    
    940000   0.99392374     17.251455      18.444494    
    941000   1.0034765      17.00433       18.324163    
    942000   1.037649       17.189593      18.213143    
    943000   1.0107096      17.31111       18.063269    
    944000   0.98428179     16.812841      18.151674    
    945000   0.93498145     16.991356      18.110545    
    946000   0.96983841     16.83871       18.126387    
    947000   1.0192327      17.296968      17.995303    
    948000   0.99723555     16.52562       17.959381    
    949000   1.0065164      17.281038      17.714469    
    950000   1.008392       17.010154      17.79069     
    951000   0.97590993     16.720862      17.833218    
    952000   0.9834374      16.807382      17.587634    
    953000   1.0005964      16.780752      17.644392    
    954000   1.0132669      17.091266      17.705464    
    955000   0.99715174     17.188108      17.506876    
    956000   0.97815534     17.682383      17.561526    
    957000   0.99265733     16.132662      17.456019    
    958000   1.0057184      17.01041       17.354317    
    959000   1.0046961      16.8931        17.071091    
    960000   1.02527        16.763223      16.974433    
    961000   0.99916302     17.059133      16.928458    
    962000   0.99690653     16.853758      16.838146    
    963000   1.0192512      16.978168      16.994696    
    964000   0.98691954     17.140262      17.199111    
    965000   0.99696641     17.749507      17.188666    
    966000   1.005687       16.683144      17.046434    
    967000   1.0088113      17.765505      17.114908    
    968000   1.0317908      17.295503      17.013485    
    969000   0.98145903     16.950673      16.822776    
    970000   0.98359462     17.256363      16.628338    
    971000   1.021962       16.710967      16.374127    
    972000   0.96718719     16.766042      16.26908     
    973000   0.97030781     18.164432      15.962049    
    974000   1.0113113      16.780164      15.946097    
    975000   1.0322444      17.213739      15.832667    
    976000   1.0041962      16.754463      15.823754    
    977000   1.0402415      16.714776      15.750317    
    978000   1.0082836      17.587565      15.376994    
    979000   0.98385964     17.251521      15.459514    
    980000   0.984755       17.509701      15.596413    
    981000   0.9846856      16.52923       15.417511    
    982000   0.98682955     16.680987      15.50169     
    983000   1.0198823      17.651659      15.552095    
    984000   0.97997283     17.28667       15.56612     
    985000   0.99258699     17.122699      15.449265    
    986000   0.99330458     16.89482       15.4603      
    987000   1.0211426      17.244523      15.457318    
    988000   0.98148525     16.99516       15.529511    
    989000   0.98919425     16.884203      15.470771    
    990000   1.0005504      17.289939      15.324123    
    991000   0.99027217     16.762659      15.274114    
    992000   1.0004819      16.888233      15.068606    
    993000   1.0391172      16.802097      14.928835    
    994000   0.96265736     16.835797      15.025104    
    995000   1.0265973      16.802304      15.018557    
    996000   0.99494255     16.511351      15.040561    
    997000   1.0310861      17.180901      15.244869    
    998000   0.97697187     17.172436      15.342468    
    999000   0.9872163      17.149944      15.354576    
   1000000   0.97784237     16.542686      15.276193    
   1001000   1.0367116      17.619304      15.16064     
   1002000   0.98935359     17.195241      15.230013    
   1003000   0.97541008     16.539936      15.269127    
   1004000   0.97056177     17.047287      15.173514    
   1005000   1.0188601      16.970763      15.097839    
   1006000   0.95105996     17.220532      15.104901    
   1007000   0.93023696     16.899734      14.964525    
   1008000   0.9715277      17.208941      14.920444    
   1009000   0.99846095     17.199708      14.709537    
   1010000   0.97274648     17.348011      14.716146    
   1011000   1.03495        17.000768      14.692048    
   1012000   0.95876229     16.839301      14.709577    
   1013000   0.95778971     17.047876      14.657238    
   1014000   0.98440964     17.292253      14.495309    
   1015000   1.0052717      17.608254      14.449709    
   1016000   0.99574102     16.894266      14.543273    
   1017000   0.96876444     16.962625      14.459374    
   1018000   0.99359518     16.950025      14.375737    
   1019000   0.99321486     17.042359      14.269037    
   1020000   0.99641293     17.389258      14.194571    
   1021000   1.0453074      17.021302      14.322151    
   1022000   0.9728778      17.137093      14.390614    
   1023000   1.0076615      17.142734      14.228845    
   1024000   1.0159013      17.295126      14.053499    
   1025000   1.0096909      17.238335      13.832245    
   1026000   0.9749875      16.796647      13.893363    
   1027000   1.0149977      16.783512      13.747384    
   1028000   0.98390235     17.435164      13.705203    
   1029000   1.0219979      17.230267      13.75206     
   1030000   1.0099596      17.171386      13.72055     
   1031000   1.0429119      17.240813      13.670695    
   1032000   1.0026204      17.043459      13.716362    
   1033000   1.0126683      16.146389      13.633939    
   1034000   1.0223653      17.495042      13.523015    
   1035000   0.98871767     16.905199      13.300342    
   1036000   0.98957751     17.700411      13.376851    
   1037000   1.0443442      17.156897      13.336633    
   1038000   1.0314712      17.161286      13.091145    
   1039000   1.0463322      17.120305      12.924665    
   1040000   0.99497471     17.347641      12.952198    
   1041000   1.042391       17.254371      12.708248    
   1042000   1.0066385      16.99693       12.723883    
   1043000   0.99767674     17.104035      12.495071    
   1044000   1.0065233      17.491059      12.439334    
   1045000   1.0377412      16.882445      12.343916    
   1046000   0.96436566     17.290011      12.201331    
   1047000   0.96331324     17.093225      12.313908    
   1048000   0.98426792     16.84261       12.293236    
   1049000   1.0307962      16.813094      12.163794    
   1050000   0.99821133     17.304456      12.135811    
   1051000   1.0320687      17.114906      12.102747    
   1052000   1.0543817      16.84895       11.83776     
   1053000   1.0224033      17.112843      11.929808    
   1054000   0.99787319     16.974745      12.07943     
   1055000   1.001841       17.237482      12.027729    
   1056000   1.0004465      16.975695      12.112491    
   1057000   1.0246852      17.132633      12.113524    
   1058000   0.99914796     17.111437      12.138719    
   1059000   0.96502196     16.695228      12.137395    
   1060000   1.0031897      17.288967      12.003295    
   1061000   0.95671637     17.345187      11.888882    
   1062000   1.0252533      16.98426       11.82623     
   1063000   0.9916112      16.815777      11.549844    
   1064000   0.98113885     16.765873      11.411553    
   1065000   1.0335959      16.977874      11.340304    
   1066000   1.0370604      17.530521      11.401923    
   1067000   0.99520327     16.858342      11.127606    
   1068000   0.96048098     16.500216      11.161942    
   1069000   0.99163312     17.161361      11.161624    
   1070000   1.0073355      17.136495      10.983249    
   1071000   1.0159785      17.556411      10.957669    
   1072000   1.0054858      16.73791       11.113366    
   1073000   0.9767877      17.106175      11.09596     
   1074000   1.0195165      16.852721      11.034569    
   1075000   0.99847975     16.895044      10.89101     
   1076000   1.0192808      17.531095      10.744968    
   1077000   0.96981328     16.49376       10.56761     
   1078000   1.0077783      17.149915      10.507346    
   1079000   0.92031446     16.755414      10.453847    
   1080000   1.0208975      17.00791       10.370469    
   1081000   0.97873804     17.430221      10.559987    
   1082000   1.000306       17.536181      10.43338     
   1083000   1.0292984      17.94142       10.192866    
   1084000   1.0072493      16.828039      10.093375    
   1085000   1.0317148      17.609995      10.044926    
   1086000   1.0273621      17.259657      9.9094007    
   1087000   0.9746811      17.322173      9.789498     
   1088000   1.0180242      17.408955      9.6202261    
   1089000   1.0551323      16.895369      9.6693187    
   1090000   0.97758472     17.080781      9.5655129    
   1091000   1.036768       17.262143      9.5555207    
   1092000   0.98459637     17.006258      9.3744225    
   1093000   0.97274891     16.854198      9.3069699    
   1094000   1.0181809      17.285729      9.2513789    
   1095000   1.0066978      17.139296      9.1566265    
   1096000   0.98083172     17.327233      9.1143066    
   1097000   0.95473959     16.655799      9.0809651    
   1098000   1.0295747      16.78024       9.1028311    
   1099000   1.0247795      17.643916      9.1112932    
   1100000   0.95270243     16.936473      8.9333269    
   1101000   1.0035107      17.104427      8.8085138    
   1102000   0.98832458     16.661918      8.8646564    
   1103000   1.0460726      17.024097      8.88289      
   1104000   0.97232037     17.2011        8.7864606    
   1105000   1.0013362      16.765612      8.7876195    
   1106000   0.99726766     16.997026      8.6638526    
   1107000   0.99532701     16.862562      8.6238842    
   1108000   0.97918169     17.120114      8.4942582    
   1109000   0.96279277     17.700185      8.3869263    
   1110000   0.99255203     16.802839      8.476317     
   1111000   0.97631968     17.481332      8.5632206    
   1112000   0.97179551     16.945825      8.5056374    
   1113000   0.98689004     16.426906      8.5228827    
   1114000   0.98741098     16.880195      8.3564103    
   1115000   1.0089917      17.049011      8.348129     
   1116000   1.0444686      16.947367      8.2043022    
   1117000   0.98941816     16.990189      8.1851222    
   1118000   0.99610455     17.2478        8.0596131    
   1119000   0.95571136     16.869467      8.0946425    
   1120000   1.0632615      17.335313      8.235945     
   1121000   0.98687375     16.999349      8.1808274    
   1122000   0.98069291     16.755719      8.1602428    
   1123000   0.98642452     17.176954      7.992971     
   1124000   0.99023714     16.763266      7.9516643    
   1125000   1.0115984      17.0931        7.9301024    
   1126000   1.0275646      17.652486      7.8652815    
   1127000   1.0079393      17.027089      7.7567824    
   1128000   1.0165196      16.491653      7.7839855    
   1129000   1.0413759      17.417741      7.631891     
   1130000   0.98401792     16.935218      7.5095683    
   1131000   0.99778138     17.017294      7.3974912    
   1132000   0.99266186     16.757297      7.0505729    
Fix halt condition for fix-id 3 met on step 1133000 with value 6.974562440376343 (src/fix_halt.cpp:237)
   1133000   1.0234584      17.112047      6.9745624    
Loop time of 1559.41 on 2 procs for 1033000 steps with 1201 atoms

Performance: 572339.589 tau/day, 662.430 timesteps/s
138.1% CPU use with 1 MPI tasks x 2 OpenMP threads

MPI task timing breakdown:
Section |  min time  |  avg time  |  max time  |%varavg| %total
---------------------------------------------------------------
Pair    | 479.47     | 479.47     | 479.47     |   0.0 | 30.75
Bond    | 28.818     | 28.818     | 28.818     |   0.0 |  1.85
Neigh   | 980.19     | 980.19     | 980.19     |   0.0 | 62.86
Comm    | 0.42331    | 0.42331    | 0.42331    |   0.0 |  0.03
Output  | 3.9867     | 3.9867     | 3.9867     |   0.0 |  0.26
Modify  | 61.636     | 61.636     | 61.636     |   0.0 |  3.95
Other   |            | 4.88       |            |       |  0.31

Nlocal:           1201 ave        1201 max        1201 min
Histogram: 1 0 0 0 0 0 0 0 0 0
Nghost:              0 ave           0 max           0 min
Histogram: 1 0 0 0 0 0 0 0 0 0
Neighs:         282419 ave      282419 max      282419 min
Histogram: 1 0 0 0 0 0 0 0 0 0

Total # of neighbors = 282419
Ave neighs/atom = 235.15321
Ave special neighs/atom = 1.9983347
Neighbor list builds = 8983
Dangerous builds = 0

# This simulation is done
# Move onto the next one
clear
  using 2 OpenMP thread(s) per MPI task
package omp 0
using multi-threaded neighbor list subroutines
next f
jump SELF

Total wall time: 0:31:45
