#atom_style bond #no stiffness
atom_style angle #with stiffness

boundary        p p p
###
# Pair interactions require lists of neighbours to be calculated
###

#neighbor 0.3 bin
neighbor 4 bin

neigh_modify every 1 delay 1 check yes
atom_modify sort 0 0
### Generate RESTART file, SPECIAL format, not a .txt file ###
### Useful if simulation crashes ###

restart 1000000 N3B4/trial2/restarts2/$f.restart
restart 1000000 N3B4/trial2/restarts2/bb160nuc3bl40bn4d30tot400V2.restart
#############################



### READ "start" data file ###

read_data N3B4/trial2/dats2/$f.dat
read_data N3B4/trial2/dats2/bb160nuc3bl40bn4d30tot400V2.dat
Reading data file ...
  orthogonal box = (-1000 -1000 -1000) to (1000 1000 1000)
  1 by 1 by 1 MPI processor grid
  reading atoms ...
  401 atoms
  scanning bonds ...
  3 = max bonds/atom
  scanning angles ...
  6 = max angles/atom
  reading bonds ...
  400 bonds
  reading angles ...
  408 angles
Finding 1-2 1-3 1-4 neighbors ...
  special bond factors lj:    0        0        0       
  special bond factors coul:  0        0        0       
     4 = max # of 1-2 neighbors
     4 = max # of 1-3 neighbors
     8 = max # of 1-4 neighbors
    12 = max # of special neighbors
  special bonds CPU = 0.002 seconds
  read_data CPU = 0.149 seconds

######################

### READ "REstart" data file ###

######################



###
# Define groups (atom type 1 is group 'all')
###
group all type 1
401 atoms in group all


###
# Dump configs - "simple dumpings"
###

###
# Dump configs + box coords
###

dump   1   all   custom   1000  N3B4/trial2/trjs2/$f.lammpstrj  id  x y z  ix iy iz
dump   1   all   custom   1000  N3B4/trial2/trjs2/bb160nuc3bl40bn4d30tot400V2.lammpstrj  id  x y z  ix iy iz
dump_modify   1   format line "%d %.5f %.5f %.5f %d %d %d"

########################################################################


###################################################################
# Stiffness term
#
# E = K * (1+cos(theta)), K>0
#
angle_style   cosine
#change this coefficient to change stiffness (e.g. 1,5,10)
angle_coeff   1 1.0
###################################################################

###################################################################
# Pair interaction between non-bonded atoms
#
#  Lennard-Jones 12-6 potential with cutoff:
#  potential E=4epsilon[ (sigma/r)^12 - (sigma/r)^6]  for r<r_cut
#
#  1.12246 = 2^(1/6) is the minimum of the potential


pair_style      lj/cut 1.12246152962189
#pair_style      lj/cut 3

#
#  pair_modify shift yes adds a constant to the potential such

#  that E(r_cut)=0. Forces remains unchanged.
#

pair_modify     shift yes

#
#  pair_coeff for lj/cut, specify 4:
#    * atom type interacting with
#    * atom type
#    * epsilon (energy units)
#    * sigma (distance units)
#

pair_coeff      1 1 1.0 1.0
###################################################################

###################################################################
# Pair interaction between non-bonded atoms
#
#  soft potential, for PUSHING apart overlapping atoms
#  potential E=A*(1 + cos(pi*r/r_c))
#
#  1.12246 = 2^(1/6) is the cut-off r_c

#pair_style     soft 1.12246152962189

#
#  pair_coeff for soft, specify 3:
#    * atom type interacting with
#    * atom type
#    * A
#
#

#pair_coeff      1 1 100.0
###################################################################

###################################################################
# Pair interaction between bonded atoms
#
# Fene potential + Lennard Jones 12-6:

#
#  E= - 0.5 K R0^2 ln[ 1- (r/R0)^2]
#     + 4epsilon[ (sigma/r)^12 - (sigma/r)^6] + epsilon
#

bond_style   fene


#
# For style fene, specify:
#   * bond type
#   * K (energy/distance^2)
#   * R0 (distance)
#   * epsilon (energy)  (LJ component)
#   * sigma (distance)  (LJ component)
#


special_bonds fene #<=== I M P O R T A N T (new command)
Finding 1-2 1-3 1-4 neighbors ...
  special bond factors lj:    0        1        1       
  special bond factors coul:  0        1        1       
     4 = max # of 1-2 neighbors
    12 = max # of special neighbors
  special bonds CPU = 0.001 seconds

bond_coeff   1   30   2   1.0   1.0


###################################################

###################################################################
# Pair interaction between bonded atoms
#
# Harmonic potential:
#
#  E= K * (R-R0)^2
#

#bond_style   harmonic

#
# For style harmonic, specify:
#   * bond type
#   * K (energy/distance^2)
#   * R0 (distance)
#

#bond_coeff   1   60.0   1.0
#bond_coeff   2   harmonic 0.1   1.0

###################################################
compute 1 all gyration
variable rog equal c_1
#compute 2 all coord/atom cutoff 1.1

#dump 2 all custom 10000 contact_number.dump id c_2


###
# Set up fixes
###
thermo_style   custom   step  temp enthalpy c_1
fix 1 all nve   ###NVE ensemble

fix 2 all   langevin   1.0 1.0 1.0  778655   ###Langevin integrator Tstart Tstop 1/friction rndseed


##### Sample thermodynamic info  (temperature, energy, pressure, etc.) #####
thermo 1000









############################################################################

###
# set timestep of integrator

timestep 0.01

###
# run integration for a number of steps
###
#run 0
#variable r equal c_1
#if "$r < 63.1" then "quit 1"

# lj potential minimum, cause molecule to explore
run 100000
Generated 0 of 0 mixed pair_coeff terms from geometric mixing rule
Last active /omp style is angle_style cosine/omp
Neighbor list info ...
  update: every = 1 steps, delay = 1 steps, check = yes
  max neighbors/atom: 2000, page size: 100000
  master list distance cutoff = 5.1224615
  ghost atom cutoff = 5.1224615
  binsize = 2.5612308, bins = 781 781 781
  1 neighbor lists, perpetual/occasional/extra = 1 0 0
  (1) pair lj/cut/omp, perpetual
      attributes: half, newton on, omp
      pair build: half/bin/newton/omp
      stencil: half/bin/3d
      bin: standard
WARNING: Communication cutoff 5.12246152962189 is shorter than a bond length based estimate of 5.455. This may lead to errors. (src/comm.cpp:723)
Per MPI rank memory allocation (min/avg/max) = 1861 | 1861 | 1861 Mbytes
   Step          Temp         Enthalpy         c_1      
         0   0              13.268918      38.200077    
      1000   0.94724747     18.959384      37.007286    
      2000   1.0651713      19.466867      35.809698    
      3000   1.0204936      19.577292      35.219492    
      4000   0.98790212     19.372116      34.431497    
      5000   0.96193558     20.473294      33.788109    
      6000   0.99520489     20.079059      33.099149    
      7000   0.9672568      19.564554      32.535597    
      8000   0.97119199     20.087961      32.173491    
      9000   0.99278691     21.294951      31.978631    
     10000   1.0409653      21.062064      31.767387    
     11000   0.96173554     20.36151       31.555937    
     12000   1.0725162      20.47648       31.077826    
     13000   1.0003624      20.203741      30.904228    
     14000   0.91307236     19.837636      30.627113    
     15000   1.0153542      19.911675      30.786342    
     16000   0.98964759     19.997063      30.702664    
     17000   1.0052758      20.089164      30.735462    
     18000   0.98515803     19.499084      30.296785    
     19000   1.0196714      20.312335      30.532012    
     20000   1.0718466      20.955783      30.075959    
     21000   1.0114946      20.071316      30.046846    
     22000   0.98564865     20.507827      29.917696    
     23000   0.94582507     20.246044      30.027587    
     24000   1.0431912      20.664649      29.898829    
     25000   0.96623924     20.8409        29.686848    
     26000   0.99388886     19.532459      29.671164    
     27000   0.90444258     20.498512      29.432507    
     28000   1.0139048      19.889898      29.402425    
     29000   1.0113017      20.650431      28.866091    
     30000   0.9721235      20.45317       28.855584    
     31000   0.92517136     19.328592      28.809594    
     32000   1.0169785      20.728622      28.390144    
     33000   1.1032511      20.571946      28.532651    
     34000   1.0208951      20.175081      28.558214    
     35000   0.97909458     20.667628      27.98979     
     36000   0.96780359     19.984496      28.055123    
     37000   1.0010363      20.503621      27.586166    
     38000   0.98988451     20.173124      27.423903    
     39000   0.98783585     20.18465       27.294161    
     40000   1.0231036      20.123287      27.137954    
     41000   1.0374452      20.674274      26.882676    
     42000   0.95361987     20.856472      26.913395    
     43000   1.0652067      21.188288      26.879734    
     44000   1.0498223      20.923688      26.538981    
     45000   1.0362161      20.340567      26.350124    
     46000   1.0105217      20.023772      26.318521    
     47000   0.94952424     20.964808      25.924862    
     48000   1.0848004      21.464484      26.119615    
     49000   0.98834891     20.1443        26.010013    
     50000   1.0093577      20.741599      25.759805    
     51000   1.0135929      20.211386      25.585419    
     52000   0.99189625     20.660129      25.304199    
     53000   1.0024981      20.474374      25.346967    
     54000   0.97701819     20.094741      24.840163    
     55000   0.98068125     19.921077      24.693779    
     56000   1.0150143      20.278554      24.441631    
     57000   0.99812929     20.55368       24.368124    
     58000   1.0873296      20.581057      24.33077     
     59000   0.9649504      19.76005       24.324683    
     60000   0.99397237     20.386836      24.192972    
     61000   1.03742        21.634231      24.177449    
     62000   1.0869772      21.234731      24.237525    
     63000   1.0463963      19.816133      24.549605    
     64000   1.001101       20.259208      24.350106    
     65000   1.0545777      20.165925      24.472037    
     66000   0.95161142     19.862311      24.376002    
     67000   0.96377353     20.3278        24.190357    
     68000   0.96585471     20.021471      23.896079    
     69000   0.98684889     20.263938      23.286724    
     70000   1.0418867      21.346979      23.170014    
     71000   1.0360498      20.874594      23.027711    
     72000   0.93434392     20.314934      22.512852    
     73000   1.0218666      20.096547      22.49304     
     74000   0.90970093     20.742825      22.284493    
     75000   0.92923908     20.247956      21.817373    
     76000   1.0215714      20.089912      21.669732    
     77000   1.0243658      20.394397      21.337997    
     78000   1.0656787      20.27114       20.969321    
     79000   0.99590568     20.400817      21.085279    
     80000   0.99280825     20.818985      21.360168    
     81000   1.0994178      19.250287      21.386284    
     82000   0.97603082     20.565886      21.360529    
     83000   0.98305363     20.577859      21.386909    
     84000   1.0545174      21.281602      21.291056    
     85000   0.99995984     20.479404      21.111766    
     86000   1.0304158      20.348858      21.072204    
     87000   0.97315135     19.728715      20.93504     
     88000   1.0126931      20.771825      20.791886    
     89000   0.98925625     20.629882      20.623118    
     90000   0.99750595     20.07219       20.772014    
     91000   1.0051872      20.870368      20.495301    
     92000   0.97570305     21.312777      20.401604    
     93000   1.0377315      20.510969      20.213329    
     94000   0.99275768     20.290083      20.141536    
     95000   0.98875595     20.710562      20.367849    
     96000   1.0354122      20.703863      19.88263     
     97000   0.99690953     20.787142      19.631846    
     98000   0.95291219     20.45354       19.498029    
     99000   0.98885689     19.950123      19.459789    
    100000   0.96400848     20.714347      19.196849    
Loop time of 650.135 on 2 procs for 100000 steps with 401 atoms

Performance: 132895.556 tau/day, 153.814 timesteps/s
93.5% CPU use with 1 MPI tasks x 2 OpenMP threads

MPI task timing breakdown:
Section |  min time  |  avg time  |  max time  |%varavg| %total
---------------------------------------------------------------
Pair    | 1.1391     | 1.1391     | 1.1391     |   0.0 |  0.18
Bond    | 1.6486     | 1.6486     | 1.6486     |   0.0 |  0.25
Neigh   | 643.41     | 643.41     | 643.41     |   0.0 | 98.97
Comm    | 0.041347   | 0.041347   | 0.041347   |   0.0 |  0.01
Output  | 0.3959     | 0.3959     | 0.3959     |   0.0 |  0.06
Modify  | 3.2461     | 3.2461     | 3.2461     |   0.0 |  0.50
Other   |            | 0.2572     |            |       |  0.04

Nlocal:            401 ave         401 max         401 min
Histogram: 1 0 0 0 0 0 0 0 0 0
Nghost:              0 ave           0 max           0 min
Histogram: 1 0 0 0 0 0 0 0 0 0
Neighs:           4813 ave        4813 max        4813 min
Histogram: 1 0 0 0 0 0 0 0 0 0

Total # of neighbors = 4813
Ave neighs/atom = 12.002494
Ave special neighs/atom = 1.9950125
Neighbor list builds = 1089
Dangerous builds = 0

# Replace lj potential, now collapse
pair_style      lj/cut 3

# Cutoff simul when gyration under 7
# Variable created with equal requires v_ + 'name'
fix 3 all halt 1000 v_rog < 7

run 3000000
Generated 0 of 0 mixed pair_coeff terms from geometric mixing rule
Last active /omp style is angle_style cosine/omp
Per MPI rank memory allocation (min/avg/max) = 1861 | 1861 | 1861 Mbytes
   Step          Temp         Enthalpy         c_1      
    100000   0.96400848     19.717666      19.196849    
    101000   1.0469732      19.702505      19.044872    
    102000   1.0089185      18.433514      18.598006    
    103000   0.99615546     17.728574      17.968311    
    104000   0.95984796     18.388642      17.643614    
    105000   1.0164482      19.134193      17.273392    
    106000   0.96240835     18.00904       17.1169      
    107000   1.1106431      19.198345      17.178517    
    108000   1.0787088      17.972541      17.002613    
    109000   1.0409835      17.930837      16.887236    
    110000   0.94362949     18.520987      16.323008    
    111000   1.0029633      17.790485      15.819683    
    112000   1.0274431      17.879541      15.648978    
    113000   1.0065912      17.695529      15.458707    
    114000   1.0218214      17.93554       15.526938    
    115000   0.97309725     17.841377      15.166932    
    116000   1.0102735      17.634606      15.103688    
    117000   0.9700126      17.61545       14.957702    
    118000   0.97817787     18.381639      14.483278    
    119000   1.0312131      17.703733      14.353311    
    120000   1.0712957      17.474902      14.009515    
    121000   0.96436926     18.364003      13.700893    
    122000   1.0655789      18.13025       13.388143    
    123000   1.0125492      17.573887      13.249108    
    124000   0.9807971      18.371948      13.179797    
    125000   1.0599558      17.994494      13.028242    
    126000   1.0568337      18.810469      12.960846    
    127000   1.0320826      17.85027       12.727326    
    128000   1.0532014      18.118555      12.402719    
    129000   0.94181734     17.555416      12.142138    
    130000   1.0066051      17.433057      12.099712    
    131000   1.0074271      17.21316       11.939864    
    132000   0.96734275     17.969393      12.107532    
    133000   0.96635552     17.858661      12.153999    
    134000   0.90755086     18.014233      11.947911    
    135000   1.04195        18.495252      11.920962    
    136000   1.0409134      18.779352      11.800395    
    137000   0.97663214     17.861743      11.828127    
    138000   1.029705       17.726032      11.403145    
    139000   1.0190823      18.01518       11.061945    
    140000   0.98884868     17.340388      11.027743    
    141000   1.0031079      17.579686      10.898968    
    142000   0.9845614      17.184959      10.736403    
    143000   0.97580354     17.249985      10.424291    
    144000   0.93731633     17.105231      10.108403    
    145000   1.0345327      17.900916      10.024835    
    146000   0.99237092     17.843242      10.247832    
    147000   1.0400497      18.000284      9.5561305    
    148000   1.014335       18.499188      8.8313318    
    149000   0.98077567     17.687086      8.4270242    
    150000   0.94066607     17.327215      8.1498503    
    151000   0.9694044      18.229467      7.8911671    
    152000   1.0533401      17.424041      7.7057327    
    153000   1.0699399      18.770577      7.4824839    
    154000   0.98227523     17.246711      7.3230104    
    155000   0.96041595     17.922705      7.4694608    
    156000   1.0520446      18.309823      7.0608697    
Fix halt condition for fix-id 3 met on step 157000 with value 6.733253367603659 (src/fix_halt.cpp:237)
    157000   0.97673927     16.985369      6.7332534    
Loop time of 111.132 on 2 procs for 57000 steps with 401 atoms

Performance: 443149.091 tau/day, 512.904 timesteps/s
102.2% CPU use with 1 MPI tasks x 2 OpenMP threads

MPI task timing breakdown:
Section |  min time  |  avg time  |  max time  |%varavg| %total
---------------------------------------------------------------
Pair    | 7.9724     | 7.9724     | 7.9724     |   0.0 |  7.17
Bond    | 0.99409    | 0.99409    | 0.99409    |   0.0 |  0.89
Neigh   | 99.821     | 99.821     | 99.821     |   0.0 | 89.82
Comm    | 0.024271   | 0.024271   | 0.024271   |   0.0 |  0.02
Output  | 0.22569    | 0.22569    | 0.22569    |   0.0 |  0.20
Modify  | 1.9264     | 1.9264     | 1.9264     |   0.0 |  1.73
Other   |            | 0.1685     |            |       |  0.15

Nlocal:            401 ave         401 max         401 min
Histogram: 1 0 0 0 0 0 0 0 0 0
Nghost:              0 ave           0 max           0 min
Histogram: 1 0 0 0 0 0 0 0 0 0
Neighs:          40728 ave       40728 max       40728 min
Histogram: 1 0 0 0 0 0 0 0 0 0

Total # of neighbors = 40728
Ave neighs/atom = 101.56608
Ave special neighs/atom = 1.9950125
Neighbor list builds = 432
Dangerous builds = 0

# This simulation is done
# Move onto the next one
clear
  using 2 OpenMP thread(s) per MPI task
package omp 0
using multi-threaded neighbor list subroutines
next f
jump SELF

###
# Reference paper:
# K. Kremer and G. S. Grest
# Dynamics of entangled linear polymer melts: A molecular-dynamics simulation
# J Chem Phys 92, 5057 (1990)

##################################
# MIHIR: for branched polymers
# LJ minimum first to expand and explore, then collapse
###

###
# Looping through the various N3B4 polymers to simulate,
# define variables to switch through
variable f index bb40nuc3bl10bn4d30tot100V2 bb80nuc3bl20bn4d30tot200V2 bb120nuc3bl30bn4d30tot300V2 bb160nuc3bl40bn4d30tot400V2 bb200nuc3bl50bn4d30tot500V2 bb240nuc3bl60bn4d30tot600V2 bb280nuc3bl70bn4d30tot700V2 bb320nuc3bl80bn4d30tot800V2 bb360nuc3bl90bn4d30tot900V2 bb400nuc3bl100bn4d30tot1000V2 bb440nuc3bl110bn4d30tot1100V2 bb480nuc3bl120bn4d30tot1200V2
# variable f index bb40nuc3bl10bn4d30tot100V3 bb80nuc3bl20bn4d30tot200V3 bb120nuc3bl30bn4d30tot300V3 bb160nuc3bl40bn4d30tot400V3 bb200nuc3bl50bn4d30tot500V3 bb240nuc3bl60bn4d30tot600V3 bb280nuc3bl70bn4d30tot700V3 bb320nuc3bl80bn4d30tot800V3 bb360nuc3bl90bn4d30tot900V3 bb400nuc3bl100bn4d30tot1000V3 bb440nuc3bl110bn4d30tot1100V3 bb480nuc3bl120bn4d30tot1200V3
# variable f index bb40nuc3bl10bn4d30tot100 bb80nuc3bl20bn4d30tot200 bb120nuc3bl30bn4d30tot300 bb160nuc3bl40bn4d30tot400 bb200nuc3bl50bn4d30tot500 bb240nuc3bl60bn4d30tot600 bb280nuc3bl70bn4d30tot700 bb320nuc3bl80bn4d30tot800 bb360nuc3bl90bn4d30tot900 bb400nuc3bl100bn4d30tot1000 bb440nuc3bl110bn4d30tot1100 bb480nuc3bl120bn4d30tot1200
###


###
# Box and units  (use LJ units and periodic boundaries)
###

units lj
log N3B4/trial2/logs2/$f.log
log N3B4/trial2/logs2/bb200nuc3bl50bn4d30tot500V2.log
