#atom_style bond #no stiffness
atom_style angle #with stiffness

boundary        p p p
###
# Pair interactions require lists of neighbours to be calculated
###

#neighbor 0.3 bin
neighbor 4 bin

neigh_modify every 1 delay 1 check yes
atom_modify sort 0 0
### Generate RESTART file, SPECIAL format, not a .txt file ###
### Useful if simulation crashes ###

restart 1000000 N3B4/trial2/restarts2/$f.restart
restart 1000000 N3B4/trial2/restarts2/bb280nuc3bl70bn4d30tot700V2.restart
#############################



### READ "start" data file ###

read_data N3B4/trial2/dats2/$f.dat
read_data N3B4/trial2/dats2/bb280nuc3bl70bn4d30tot700V2.dat
Reading data file ...
  orthogonal box = (-1000 -1000 -1000) to (1000 1000 1000)
  1 by 1 by 1 MPI processor grid
  reading atoms ...
  701 atoms
  scanning bonds ...
  3 = max bonds/atom
  scanning angles ...
  6 = max angles/atom
  reading bonds ...
  700 bonds
  reading angles ...
  708 angles
Finding 1-2 1-3 1-4 neighbors ...
  special bond factors lj:    0        0        0       
  special bond factors coul:  0        0        0       
     4 = max # of 1-2 neighbors
     4 = max # of 1-3 neighbors
     8 = max # of 1-4 neighbors
    12 = max # of special neighbors
  special bonds CPU = 0.004 seconds
  read_data CPU = 0.312 seconds

######################

### READ "REstart" data file ###

######################



###
# Define groups (atom type 1 is group 'all')
###
group all type 1
701 atoms in group all


###
# Dump configs - "simple dumpings"
###

###
# Dump configs + box coords
###

dump   1   all   custom   1000  N3B4/trial2/trjs2/$f.lammpstrj  id  x y z  ix iy iz
dump   1   all   custom   1000  N3B4/trial2/trjs2/bb280nuc3bl70bn4d30tot700V2.lammpstrj  id  x y z  ix iy iz
dump_modify   1   format line "%d %.5f %.5f %.5f %d %d %d"

########################################################################


###################################################################
# Stiffness term
#
# E = K * (1+cos(theta)), K>0
#
angle_style   cosine
#change this coefficient to change stiffness (e.g. 1,5,10)
angle_coeff   1 1.0
###################################################################

###################################################################
# Pair interaction between non-bonded atoms
#
#  Lennard-Jones 12-6 potential with cutoff:
#  potential E=4epsilon[ (sigma/r)^12 - (sigma/r)^6]  for r<r_cut
#
#  1.12246 = 2^(1/6) is the minimum of the potential


pair_style      lj/cut 1.12246152962189
#pair_style      lj/cut 3

#
#  pair_modify shift yes adds a constant to the potential such

#  that E(r_cut)=0. Forces remains unchanged.
#

pair_modify     shift yes

#
#  pair_coeff for lj/cut, specify 4:
#    * atom type interacting with
#    * atom type
#    * epsilon (energy units)
#    * sigma (distance units)
#

pair_coeff      1 1 1.0 1.0
###################################################################

###################################################################
# Pair interaction between non-bonded atoms
#
#  soft potential, for PUSHING apart overlapping atoms
#  potential E=A*(1 + cos(pi*r/r_c))
#
#  1.12246 = 2^(1/6) is the cut-off r_c

#pair_style     soft 1.12246152962189

#
#  pair_coeff for soft, specify 3:
#    * atom type interacting with
#    * atom type
#    * A
#
#

#pair_coeff      1 1 100.0
###################################################################

###################################################################
# Pair interaction between bonded atoms
#
# Fene potential + Lennard Jones 12-6:

#
#  E= - 0.5 K R0^2 ln[ 1- (r/R0)^2]
#     + 4epsilon[ (sigma/r)^12 - (sigma/r)^6] + epsilon
#

bond_style   fene


#
# For style fene, specify:
#   * bond type
#   * K (energy/distance^2)
#   * R0 (distance)
#   * epsilon (energy)  (LJ component)
#   * sigma (distance)  (LJ component)
#


special_bonds fene #<=== I M P O R T A N T (new command)
Finding 1-2 1-3 1-4 neighbors ...
  special bond factors lj:    0        1        1       
  special bond factors coul:  0        1        1       
     4 = max # of 1-2 neighbors
    12 = max # of special neighbors
  special bonds CPU = 0.002 seconds

bond_coeff   1   30   2   1.0   1.0


###################################################

###################################################################
# Pair interaction between bonded atoms
#
# Harmonic potential:
#
#  E= K * (R-R0)^2
#

#bond_style   harmonic

#
# For style harmonic, specify:
#   * bond type
#   * K (energy/distance^2)
#   * R0 (distance)
#

#bond_coeff   1   60.0   1.0
#bond_coeff   2   harmonic 0.1   1.0

###################################################
compute 1 all gyration
variable rog equal c_1
#compute 2 all coord/atom cutoff 1.1

#dump 2 all custom 10000 contact_number.dump id c_2


###
# Set up fixes
###
thermo_style   custom   step  temp enthalpy c_1
fix 1 all nve   ###NVE ensemble

fix 2 all   langevin   1.0 1.0 1.0  778655   ###Langevin integrator Tstart Tstop 1/friction rndseed


##### Sample thermodynamic info  (temperature, energy, pressure, etc.) #####
thermo 1000









############################################################################

###
# set timestep of integrator

timestep 0.01

###
# run integration for a number of steps
###
#run 0
#variable r equal c_1
#if "$r < 63.1" then "quit 1"

# lj potential minimum, cause molecule to explore
run 100000
Generated 0 of 0 mixed pair_coeff terms from geometric mixing rule
Last active /omp style is angle_style cosine/omp
Neighbor list info ...
  update: every = 1 steps, delay = 1 steps, check = yes
  max neighbors/atom: 2000, page size: 100000
  master list distance cutoff = 5.1224615
  ghost atom cutoff = 5.1224615
  binsize = 2.5612308, bins = 781 781 781
  1 neighbor lists, perpetual/occasional/extra = 1 0 0
  (1) pair lj/cut/omp, perpetual
      attributes: half, newton on, omp
      pair build: half/bin/newton/omp
      stencil: half/bin/3d
      bin: standard
WARNING: Communication cutoff 5.12246152962189 is shorter than a bond length based estimate of 5.455. This may lead to errors. (src/comm.cpp:723)
Per MPI rank memory allocation (min/avg/max) = 1862 | 1862 | 1862 Mbytes
   Step          Temp         Enthalpy         c_1      
         0   0              13.232874      57.069799    
      1000   0.95012233     18.474447      55.916138    
      2000   0.99860722     19.11228       55.037002    
      3000   1.0141574      19.810697      54.371289    
      4000   0.99959354     19.467246      53.616047    
      5000   1.0164104      19.32074       53.081167    
      6000   1.0244592      20.017208      52.442187    
      7000   0.98799028     20.629444      51.945394    
      8000   1.0064684      19.823364      51.573639    
      9000   1.0722208      20.125198      51.545748    
     10000   0.96744121     19.72779       51.357138    
     11000   0.96415701     19.577716      51.123022    
     12000   1.0492973      20.431922      51.130627    
     13000   0.98973964     20.091862      50.96445     
     14000   0.96713551     20.410099      50.18624     
     15000   1.0173155      20.279248      49.785644    
     16000   0.97622423     19.336988      49.389746    
     17000   1.0377421      20.302486      49.313103    
     18000   0.94563151     20.250961      48.926951    
     19000   0.96853684     20.38629       48.899214    
     20000   0.97592042     20.12316       48.633462    
     21000   0.99559623     20.36099       48.603064    
     22000   1.0224305      20.051811      48.405682    
     23000   1.0354187      19.591015      48.345359    
     24000   1.0751704      20.253198      48.107894    
     25000   1.0178525      20.232223      48.32916     
     26000   1.0742805      20.278673      48.034799    
     27000   0.98871772     19.912574      47.497893    
     28000   1.0225492      20.288096      47.292801    
     29000   1.0203314      19.889118      47.4497      
     30000   0.97679146     20.133284      47.2585      
     31000   0.97313927     20.075363      46.827646    
     32000   1.0143305      20.648208      46.607288    
     33000   0.97591524     20.304587      46.202304    
     34000   0.98783502     20.479406      45.902303    
     35000   1.0114561      20.25931       45.687482    
     36000   1.0138223      20.169704      45.65506     
     37000   1.0163247      20.658713      45.621346    
     38000   0.96184491     20.572823      45.381813    
     39000   1.0324116      20.040147      45.388004    
     40000   1.0141145      20.422742      45.439737    
     41000   1.0424609      20.458522      45.371239    
     42000   1.0321975      20.455726      45.258366    
     43000   1.0183646      20.87264       45.137916    
     44000   0.90946747     19.893737      45.003751    
     45000   1.019969       20.030868      44.779986    
     46000   0.95191996     20.069677      44.660847    
     47000   0.98619446     19.825421      44.555874    
     48000   0.99237779     20.346829      44.275622    
     49000   1.0000879      20.058585      43.995761    
     50000   0.99138358     20.755762      43.790147    
     51000   0.9823029      20.358642      43.608482    
     52000   0.9908518      20.555939      43.413746    
     53000   0.98137897     20.237974      43.415814    
     54000   0.95682747     20.746486      43.43361     
     55000   0.93320908     19.993045      43.23677     
     56000   1.0294622      20.396652      43.00515     
     57000   1.0566319      20.791117      42.730341    
     58000   0.99651947     20.536525      42.85158     
     59000   1.0371145      20.811167      42.813159    
     60000   0.99231467     20.604989      42.494002    
     61000   1.0064433      20.788113      42.452638    
     62000   1.0500831      20.858217      42.12462     
     63000   1.0271957      20.472027      42.077833    
     64000   1.0163494      20.45047       42.143178    
     65000   0.97256213     19.867116      41.89696     
     66000   1.0251081      20.677668      41.83916     
     67000   0.99504332     20.404301      41.740178    
     68000   1.013341       20.750694      41.609009    
     69000   1.0276894      20.572673      41.26152     
     70000   1.0294127      20.238208      41.175493    
     71000   0.98322763     20.49644       40.921307    
     72000   1.0708802      20.556979      41.012835    
     73000   0.99770917     20.392819      40.998068    
     74000   0.98177941     20.160755      40.969558    
     75000   0.98616098     20.244002      41.015737    
     76000   1.0144835      20.252817      40.900897    
     77000   0.96136446     20.807708      40.779462    
     78000   0.99056921     20.406344      40.828295    
     79000   0.95666159     20.144059      40.665665    
     80000   1.0198965      20.580703      40.513089    
     81000   1.0169229      20.845468      40.301146    
     82000   1.0713035      20.974578      40.058501    
     83000   0.98687486     19.88027       39.736266    
     84000   0.96085788     19.791759      39.804569    
     85000   1.0375652      21.023047      39.802751    
     86000   1.022697       19.848343      39.536538    
     87000   0.92220498     20.042476      39.392362    
     88000   1.0138367      20.297232      39.419363    
     89000   1.0250898      20.305364      38.848587    
     90000   0.98197093     20.390162      38.713848    
     91000   0.98402849     20.828587      38.759876    
     92000   1.0427673      20.49286       38.552043    
     93000   1.0052266      20.224316      38.331144    
     94000   0.98896354     20.602521      38.192718    
     95000   0.99565652     20.802735      38.491056    
     96000   1.0301396      19.836844      38.609626    
     97000   1.0081648      20.497519      38.559586    
     98000   0.99754539     20.632018      38.430626    
     99000   1.007726       20.464578      38.615441    
    100000   0.97747277     19.846217      38.546819    
Loop time of 403.175 on 2 procs for 100000 steps with 701 atoms

Performance: 214299.205 tau/day, 248.031 timesteps/s
94.5% CPU use with 1 MPI tasks x 2 OpenMP threads

MPI task timing breakdown:
Section |  min time  |  avg time  |  max time  |%varavg| %total
---------------------------------------------------------------
Pair    | 1.1862     | 1.1862     | 1.1862     |   0.0 |  0.29
Bond    | 1.9374     | 1.9374     | 1.9374     |   0.0 |  0.48
Neigh   | 395.24     | 395.24     | 395.24     |   0.0 | 98.03
Comm    | 0.034823   | 0.034823   | 0.034823   |   0.0 |  0.01
Output  | 0.34007    | 0.34007    | 0.34007    |   0.0 |  0.08
Modify  | 4.1404     | 4.1404     | 4.1404     |   0.0 |  1.03
Other   |            | 0.2932     |            |       |  0.07

Nlocal:            701 ave         701 max         701 min
Histogram: 1 0 0 0 0 0 0 0 0 0
Nghost:              0 ave           0 max           0 min
Histogram: 1 0 0 0 0 0 0 0 0 0
Neighs:           5957 ave        5957 max        5957 min
Histogram: 1 0 0 0 0 0 0 0 0 0

Total # of neighbors = 5957
Ave neighs/atom = 8.4978602
Ave special neighs/atom = 1.9971469
Neighbor list builds = 1136
Dangerous builds = 0

# Replace lj potential, now collapse
pair_style      lj/cut 3

# Cutoff simul when gyration under 7
# Variable created with equal requires v_ + 'name'
fix 3 all halt 1000 v_rog < 7

run 3000000
Generated 0 of 0 mixed pair_coeff terms from geometric mixing rule
Last active /omp style is angle_style cosine/omp
Per MPI rank memory allocation (min/avg/max) = 1862 | 1862 | 1862 Mbytes
   Step          Temp         Enthalpy         c_1      
    100000   0.97747277     19.017104      38.546819    
    101000   1.0357713      19.965825      38.21686     
    102000   0.9722355      19.263598      37.856295    
    103000   0.97236053     19.698523      37.737864    
    104000   0.96001423     19.455241      37.515008    
    105000   1.0159752      19.320749      37.439221    
    106000   1.0043182      19.591952      37.314167    
    107000   0.98655204     19.167699      36.918111    
    108000   1.0471583      19.849765      37.011362    
    109000   1.0190492      18.811624      36.6594      
    110000   0.97587441     19.381459      36.20565     
    111000   0.95223934     18.873978      36.156334    
    112000   0.98247541     19.447056      35.987878    
    113000   1.0557344      18.774277      35.743743    
    114000   1.0010957      19.053573      35.329019    
    115000   0.96721965     19.262826      35.228594    
    116000   0.99941982     19.089629      35.288119    
    117000   1.0346917      19.102445      34.936185    
    118000   1.0084748      18.82982       34.601664    
    119000   0.98656003     18.731497      34.622494    
    120000   0.97711694     18.214791      34.483807    
    121000   0.99029122     18.14749       34.108167    
    122000   1.0271479      17.940973      33.732515    
    123000   1.06718        18.134131      33.649658    
    124000   0.985701       18.648291      33.768239    
    125000   0.98715323     18.724227      33.581084    
    126000   1.003409       18.043216      33.218759    
    127000   0.99323567     17.856374      33.232953    
    128000   1.0119232      18.041951      32.612341    
    129000   1.0388749      18.704451      32.272626    
    130000   1.0221895      18.385931      32.28867     
    131000   0.99664014     17.417813      31.93208     
    132000   1.0328799      17.649902      31.525955    
    133000   0.93852985     17.722591      31.547259    
    134000   0.95465222     18.075763      31.507704    
    135000   0.99502814     17.644064      31.293659    
    136000   0.96290083     18.3483        31.056339    
    137000   1.0153409      17.817315      30.951999    
    138000   0.99407696     18.067422      30.99316     
    139000   1.0081776      17.934211      30.861174    
    140000   0.97442027     18.554173      30.749161    
    141000   1.0261401      17.982313      30.890743    
    142000   1.0209861      18.430308      30.576552    
    143000   1.0042503      17.963897      30.339138    
    144000   1.051111       18.008283      30.430009    
    145000   1.0318517      17.587801      29.914413    
    146000   0.97008198     17.781433      29.784478    
    147000   1.003032       17.285753      29.973607    
    148000   1.0231049      17.906783      29.968527    
    149000   0.98289595     18.224156      29.947179    
    150000   0.9809791      18.13537       29.68896     
    151000   0.9967241      17.84149       29.539792    
    152000   0.96853385     17.759298      29.106693    
    153000   1.0129797      17.540496      29.209672    
    154000   1.0156266      17.153487      29.223439    
    155000   0.92773279     17.413126      28.630873    
    156000   0.9639953      17.261905      28.749144    
    157000   1.0304696      18.364651      28.813216    
    158000   0.95153864     17.790398      28.484491    
    159000   0.98070824     17.670329      28.459172    
    160000   1.0214619      17.705697      28.476468    
    161000   1.0041111      17.490488      28.35291     
    162000   1.05189        18.397267      27.915336    
    163000   0.98503192     17.983379      27.995422    
    164000   1.0461528      17.665223      27.988097    
    165000   1.027507       17.643908      27.683835    
    166000   0.94465751     17.213625      27.530618    
    167000   1.0397791      17.443738      27.444932    
    168000   0.9799722      17.615418      27.075884    
    169000   1.0191337      18.497539      26.764695    
    170000   1.0044479      18.061492      26.717306    
    171000   1.0544031      17.863032      26.657357    
    172000   1.0624563      17.987341      26.694712    
    173000   0.99647462     17.496665      26.47458     
    174000   1.0259636      17.39172       26.217683    
    175000   1.0162071      17.644797      26.043965    
    176000   1.0605058      17.646698      25.702006    
    177000   0.98895852     17.821439      25.44965     
    178000   1.0081053      17.7649        25.322758    
    179000   0.99234439     17.820052      25.334329    
    180000   0.96341762     17.717825      25.015095    
    181000   0.98063021     17.234716      24.837327    
    182000   0.98673029     18.210465      24.676353    
    183000   1.0277273      17.815918      24.753442    
    184000   0.97404325     17.819128      24.589996    
    185000   1.0114246      18.165003      24.571725    
    186000   0.97402183     18.127007      24.408764    
    187000   1.0374008      17.976881      24.306816    
    188000   1.0616811      18.010855      24.033445    
    189000   0.98123855     18.130161      23.926172    
    190000   1.054945       17.605456      23.671724    
    191000   0.96913795     17.87814       23.348256    
    192000   1.0360387      17.453647      22.967069    
    193000   1.007664       17.970901      22.811664    
    194000   1.0334236      17.847293      22.522546    
    195000   0.98458174     18.673961      22.504885    
    196000   0.96194945     17.413799      22.788612    
    197000   1.0167977      17.334852      22.642762    
    198000   0.9536399      17.807468      22.696304    
    199000   0.98836123     17.710871      22.670883    
    200000   0.96837059     18.401056      22.379097    
    201000   1.0404093      17.48592       22.272715    
    202000   0.95783891     17.189686      22.435333    
    203000   0.99745483     17.595581      22.383295    
    204000   1.0141166      18.610057      22.275661    
    205000   0.99612517     17.446394      21.941941    
    206000   1.0398867      17.169229      21.705466    
    207000   0.97390353     16.778394      21.796101    
    208000   1.0071183      17.495203      21.687228    
    209000   0.98251048     17.9744        21.718931    
    210000   1.0469411      17.440612      21.915723    
    211000   1.0449146      17.003576      21.67528     
    212000   0.93440943     18.000995      21.496205    
    213000   0.98859354     18.110871      21.375186    
    214000   1.0540088      17.809148      21.32761     
    215000   0.97458041     17.739134      21.259483    
    216000   0.98945958     18.231619      21.390187    
    217000   1.0365545      17.763406      21.247519    
    218000   1.0321827      17.125395      21.122063    
    219000   0.97143555     18.340932      20.786796    
    220000   1.0260689      17.855938      20.551401    
    221000   1.0107437      18.198077      20.601546    
    222000   0.99959125     18.028633      20.424651    
    223000   0.98265558     17.663556      20.010942    
    224000   1.0232574      17.303059      19.869758    
    225000   0.96004288     17.917198      19.654105    
    226000   1.0276365      17.723025      19.312373    
    227000   0.9850772      17.612099      19.138675    
    228000   1.0604647      17.87971       19.115047    
    229000   0.99169087     17.489367      19.13919     
    230000   0.95763308     18.089871      18.919143    
    231000   0.9977136      17.697113      18.865422    
    232000   1.0233084      17.806595      18.789225    
    233000   0.99571299     17.484369      18.670511    
    234000   0.93383953     17.205143      18.46056     
    235000   1.0029342      17.514759      18.509982    
    236000   1.0425012      17.91455       18.250971    
    237000   0.97138695     17.274369      18.066014    
    238000   1.0095137      17.872028      17.829955    
    239000   1.0140875      18.054609      17.736074    
    240000   0.95463452     17.110987      17.801035    
    241000   1.005523       17.824307      17.96205     
    242000   1.0073146      17.282394      17.772032    
    243000   0.97544263     18.045253      17.723413    
    244000   0.99794841     17.402748      17.393513    
    245000   1.0111538      17.97834       17.372735    
    246000   1.0200596      16.831416      17.507492    
    247000   1.004592       18.412838      17.310148    
    248000   0.93692871     17.740632      17.209544    
    249000   0.99843909     17.300746      17.01797     
    250000   1.0033084      17.483585      16.736503    
    251000   0.96076263     17.43024       16.898419    
    252000   0.94202871     17.565693      17.231312    
    253000   1.0107983      17.019783      17.293825    
    254000   1.0309109      17.785631      17.094504    
    255000   1.0358183      17.740329      17.474838    
    256000   0.99961196     17.832927      17.495385    
    257000   0.99026723     17.378359      17.54275     
    258000   0.98542997     17.433253      17.514612    
    259000   0.98743269     17.864461      17.40094     
    260000   0.99291527     17.64748       17.453278    
    261000   1.0451775      17.632048      17.434617    
    262000   0.96974591     17.542267      17.149451    
    263000   1.066454       17.464595      17.115034    
    264000   0.98117284     17.626206      17.114402    
    265000   0.97825675     18.35741       16.991608    
    266000   1.0126678      17.734958      16.912541    
    267000   0.98221471     17.30479       17.01358     
    268000   0.97891714     17.296385      16.838229    
    269000   1.0112627      17.678864      16.703579    
    270000   1.0140934      17.853034      16.431494    
    271000   1.0493076      17.049329      16.26842     
    272000   1.0453613      17.877184      16.174211    
    273000   1.0151072      17.392508      16.213249    
    274000   0.96588701     17.574838      16.237641    
    275000   1.0572004      17.99213       16.262302    
    276000   0.98722187     17.028303      16.295839    
    277000   0.95541221     17.663968      16.423959    
    278000   0.97162254     16.893688      16.154223    
    279000   0.96600452     16.955124      15.886971    
    280000   1.0117514      18.13676       15.842747    
    281000   1.0057564      18.150406      15.617112    
    282000   0.98671041     17.905773      15.37904     
    283000   1.0480663      17.53288       15.379596    
    284000   1.0138297      17.061537      15.29289     
    285000   0.9762598      17.112309      15.25202     
    286000   0.9817515      17.36181       15.208018    
    287000   0.92068104     17.532482      14.940844    
    288000   1.0267588      17.304193      14.812063    
    289000   0.95772953     17.284638      14.492258    
    290000   0.97842221     17.940417      14.325922    
    291000   1.0591901      17.828523      14.305444    
    292000   0.99549241     17.578208      14.388079    
    293000   0.9953761      18.177161      14.018566    
    294000   1.0418034      19.050032      13.931198    
    295000   1.001408       17.39738       13.958006    
    296000   0.98836403     17.607415      13.80247     
    297000   1.0242681      16.909216      13.659289    
    298000   0.97796662     17.977378      13.495312    
    299000   1.0393157      17.551257      13.22866     
    300000   1.0053241      18.023923      13.29956     
    301000   1.0464691      17.810513      13.063611    
    302000   0.96488836     16.976648      13.0547      
    303000   1.0289982      17.39054       13.068522    
    304000   1.005264       17.186467      13.116788    
    305000   1.0060878      18.02594       12.93705     
    306000   1.0035178      17.064263      13.011537    
    307000   1.0060039      17.22588       12.900993    
    308000   0.97087833     17.597329      12.89065     
    309000   0.9163443      16.500896      12.98544     
    310000   1.071705       18.038613      13.035903    
    311000   0.98098753     17.341907      12.916863    
    312000   1.0411059      17.484869      12.662812    
    313000   0.96319472     17.361961      12.48984     
    314000   0.95842056     16.895814      12.265324    
    315000   1.0244546      17.123653      12.290518    
    316000   0.96113056     17.21195       12.307377    
    317000   1.0022923      17.703458      12.012631    
    318000   0.99188132     17.035138      12.076667    
    319000   1.0085452      17.552442      12.008098    
    320000   1.0629225      17.813781      11.995835    
    321000   0.99719844     17.910503      11.861512    
    322000   1.0446674      17.388145      11.847641    
    323000   1.0145136      17.064007      11.784732    
    324000   0.95481261     17.684764      11.661834    
    325000   0.9971403      17.240901      11.921988    
    326000   0.9937882      17.838604      11.643339    
    327000   0.97821484     18.23798       11.408687    
    328000   1.0271414      17.813071      11.380438    
    329000   0.95043582     17.507579      11.567023    
    330000   0.96196982     17.31094       11.434451    
    331000   1.0041756      16.751339      11.310465    
    332000   0.96602614     17.450946      11.431624    
    333000   1.1171896      17.424742      11.231875    
    334000   0.99104391     17.70312       11.294272    
    335000   0.98806402     17.138868      11.353745    
    336000   0.98910503     16.990552      11.072607    
    337000   1.0298758      17.272402      11.086342    
    338000   0.98243032     17.457281      10.902686    
    339000   1.0127153      17.498902      10.894287    
    340000   1.0051112      17.107636      10.77427     
    341000   0.98078624     17.565869      10.851791    
    342000   1.0080721      17.110665      10.741159    
    343000   1.0044176      17.644714      10.618072    
    344000   0.98695217     17.702794      10.46804     
    345000   1.0295328      17.566535      10.499379    
    346000   0.99946626     17.538015      10.338467    
    347000   1.0041518      17.847903      10.225471    
    348000   1.0036982      17.6181        10.17242     
    349000   0.98845859     17.342385      10.135578    
    350000   1.042945       17.397736      9.6468744    
    351000   0.94159879     17.435066      9.2048947    
    352000   1.0306054      16.732239      9.1182852    
    353000   0.98093271     17.509282      9.1633581    
    354000   0.9544928      17.59832       9.2304455    
    355000   0.96230059     17.943047      9.0616981    
    356000   0.99708268     17.918869      8.8814492    
    357000   1.0233671      16.882476      8.4968396    
    358000   1.0140218      17.996128      8.6663552    
    359000   1.0142965      17.644908      8.5418776    
    360000   0.95241364     17.431258      8.5304781    
    361000   1.0043422      17.626915      8.539877     
    362000   1.0025962      17.211704      8.3910106    
    363000   0.9817549      17.328504      8.398391     
    364000   0.99236409     16.811051      8.1468201    
    365000   0.95449147     17.285384      7.9241428    
    366000   0.96924797     17.576363      7.7470065    
    367000   1.0458407      17.799148      7.7271931    
    368000   1.006401       17.487834      7.2643685    
Fix halt condition for fix-id 3 met on step 369000 with value 6.938479585105758 (src/fix_halt.cpp:237)
    369000   1.0664436      17.3365        6.9384796    
Loop time of 321.784 on 2 procs for 269000 steps with 701 atoms

Performance: 722273.622 tau/day, 835.965 timesteps/s
115.9% CPU use with 1 MPI tasks x 2 OpenMP threads

MPI task timing breakdown:
Section |  min time  |  avg time  |  max time  |%varavg| %total
---------------------------------------------------------------
Pair    | 62.932     | 62.932     | 62.932     |   0.0 | 19.56
Bond    | 4.7036     | 4.7036     | 4.7036     |   0.0 |  1.46
Neigh   | 242.5      | 242.5      | 242.5      |   0.0 | 75.36
Comm    | 0.084256   | 0.084256   | 0.084256   |   0.0 |  0.03
Output  | 0.81223    | 0.81223    | 0.81223    |   0.0 |  0.25
Modify  | 10.032     | 10.032     | 10.032     |   0.0 |  3.12
Other   |            | 0.7171     |            |       |  0.22

Nlocal:            701 ave         701 max         701 min
Histogram: 1 0 0 0 0 0 0 0 0 0
Nghost:              0 ave           0 max           0 min
Histogram: 1 0 0 0 0 0 0 0 0 0
Neighs:         112613 ave      112613 max      112613 min
Histogram: 1 0 0 0 0 0 0 0 0 0

Total # of neighbors = 112613
Ave neighs/atom = 160.64622
Ave special neighs/atom = 1.9971469
Neighbor list builds = 2190
Dangerous builds = 0

# This simulation is done
# Move onto the next one
clear
  using 2 OpenMP thread(s) per MPI task
package omp 0
using multi-threaded neighbor list subroutines
next f
jump SELF

###
# Reference paper:
# K. Kremer and G. S. Grest
# Dynamics of entangled linear polymer melts: A molecular-dynamics simulation
# J Chem Phys 92, 5057 (1990)

##################################
# MIHIR: for branched polymers
# LJ minimum first to expand and explore, then collapse
###

###
# Looping through the various N3B4 polymers to simulate,
# define variables to switch through
variable f index bb40nuc3bl10bn4d30tot100V2 bb80nuc3bl20bn4d30tot200V2 bb120nuc3bl30bn4d30tot300V2 bb160nuc3bl40bn4d30tot400V2 bb200nuc3bl50bn4d30tot500V2 bb240nuc3bl60bn4d30tot600V2 bb280nuc3bl70bn4d30tot700V2 bb320nuc3bl80bn4d30tot800V2 bb360nuc3bl90bn4d30tot900V2 bb400nuc3bl100bn4d30tot1000V2 bb440nuc3bl110bn4d30tot1100V2 bb480nuc3bl120bn4d30tot1200V2
# variable f index bb40nuc3bl10bn4d30tot100V3 bb80nuc3bl20bn4d30tot200V3 bb120nuc3bl30bn4d30tot300V3 bb160nuc3bl40bn4d30tot400V3 bb200nuc3bl50bn4d30tot500V3 bb240nuc3bl60bn4d30tot600V3 bb280nuc3bl70bn4d30tot700V3 bb320nuc3bl80bn4d30tot800V3 bb360nuc3bl90bn4d30tot900V3 bb400nuc3bl100bn4d30tot1000V3 bb440nuc3bl110bn4d30tot1100V3 bb480nuc3bl120bn4d30tot1200V3
# variable f index bb40nuc3bl10bn4d30tot100 bb80nuc3bl20bn4d30tot200 bb120nuc3bl30bn4d30tot300 bb160nuc3bl40bn4d30tot400 bb200nuc3bl50bn4d30tot500 bb240nuc3bl60bn4d30tot600 bb280nuc3bl70bn4d30tot700 bb320nuc3bl80bn4d30tot800 bb360nuc3bl90bn4d30tot900 bb400nuc3bl100bn4d30tot1000 bb440nuc3bl110bn4d30tot1100 bb480nuc3bl120bn4d30tot1200
###


###
# Box and units  (use LJ units and periodic boundaries)
###

units lj
log N3B4/trial2/logs2/$f.log
log N3B4/trial2/logs2/bb320nuc3bl80bn4d30tot800V2.log
