#atom_style bond #no stiffness
atom_style angle #with stiffness

boundary        p p p
###
# Pair interactions require lists of neighbours to be calculated
###

#neighbor 0.3 bin
neighbor 4 bin

neigh_modify every 1 delay 1 check yes
atom_modify sort 0 0
### Generate RESTART file, SPECIAL format, not a .txt file ###
### Useful if simulation crashes ###

restart 1000000 N7B4/trial2/restarts3/$f.restart
restart 1000000 N7B4/trial2/restarts3/bb436nuc7bl54bn4d30tot1200V2.restart
#############################



### READ "start" data file ###

read_data N7B4/trial2/dats2/$f.dat
read_data N7B4/trial2/dats2/bb436nuc7bl54bn4d30tot1200V2.dat
Reading data file ...
  orthogonal box = (-1000 -1000 -1000) to (1000 1000 1000)
  1 by 1 by 1 MPI processor grid
  reading atoms ...
  1189 atoms
  scanning bonds ...
  3 = max bonds/atom
  scanning angles ...
  6 = max angles/atom
  reading bonds ...
  1188 bonds
  reading angles ...
  1208 angles
Finding 1-2 1-3 1-4 neighbors ...
  special bond factors lj:    0        0        0       
  special bond factors coul:  0        0        0       
     4 = max # of 1-2 neighbors
     4 = max # of 1-3 neighbors
     8 = max # of 1-4 neighbors
    12 = max # of special neighbors
  special bonds CPU = 0.004 seconds
  read_data CPU = 0.265 seconds

######################

### READ "REstart" data file ###

######################



###
# Define groups (atom type 1 is group 'all')
###
group all type 1
1189 atoms in group all


###
# Dump configs - "simple dumpings"
###

###
# Dump configs + box coords
###

dump   1   all   custom   1000  N7B4/trial2/trjs3/$f.lammpstrj  id  x y z  ix iy iz
dump   1   all   custom   1000  N7B4/trial2/trjs3/bb436nuc7bl54bn4d30tot1200V2.lammpstrj  id  x y z  ix iy iz
dump_modify   1   format line "%d %.5f %.5f %.5f %d %d %d"

########################################################################


###################################################################
# Stiffness term
#
# E = K * (1+cos(theta)), K>0
#
angle_style   cosine
#change this coefficient to change stiffness (e.g. 1,5,10)
angle_coeff   1 1.0
###################################################################

###################################################################
# Pair interaction between non-bonded atoms
#
#  Lennard-Jones 12-6 potential with cutoff:
#  potential E=4epsilon[ (sigma/r)^12 - (sigma/r)^6]  for r<r_cut
#
#  1.12246 = 2^(1/6) is the minimum of the potential


pair_style      lj/cut 1.12246152962189
#pair_style      lj/cut 3

#
#  pair_modify shift yes adds a constant to the potential such

#  that E(r_cut)=0. Forces remains unchanged.
#

pair_modify     shift yes

#
#  pair_coeff for lj/cut, specify 4:
#    * atom type interacting with
#    * atom type
#    * epsilon (energy units)
#    * sigma (distance units)
#

pair_coeff      1 1 1.0 1.0
###################################################################

###################################################################
# Pair interaction between non-bonded atoms
#
#  soft potential, for PUSHING apart overlapping atoms
#  potential E=A*(1 + cos(pi*r/r_c))
#
#  1.12246 = 2^(1/6) is the cut-off r_c

#pair_style     soft 1.12246152962189

#
#  pair_coeff for soft, specify 3:
#    * atom type interacting with
#    * atom type
#    * A
#
#

#pair_coeff      1 1 100.0
###################################################################

###################################################################
# Pair interaction between bonded atoms
#
# Fene potential + Lennard Jones 12-6:

#
#  E= - 0.5 K R0^2 ln[ 1- (r/R0)^2]
#     + 4epsilon[ (sigma/r)^12 - (sigma/r)^6] + epsilon
#

bond_style   fene


#
# For style fene, specify:
#   * bond type
#   * K (energy/distance^2)
#   * R0 (distance)
#   * epsilon (energy)  (LJ component)
#   * sigma (distance)  (LJ component)
#


special_bonds fene #<=== I M P O R T A N T (new command)
Finding 1-2 1-3 1-4 neighbors ...
  special bond factors lj:    0        1        1       
  special bond factors coul:  0        1        1       
     4 = max # of 1-2 neighbors
    12 = max # of special neighbors
  special bonds CPU = 0.001 seconds

bond_coeff   1   30   2   1.0   1.0


###################################################

###################################################################
# Pair interaction between bonded atoms
#
# Harmonic potential:
#
#  E= K * (R-R0)^2
#

#bond_style   harmonic

#
# For style harmonic, specify:
#   * bond type
#   * K (energy/distance^2)
#   * R0 (distance)
#

#bond_coeff   1   60.0   1.0
#bond_coeff   2   harmonic 0.1   1.0

###################################################
compute 1 all gyration
variable rog equal c_1
#compute 2 all coord/atom cutoff 1.1

#dump 2 all custom 10000 contact_number.dump id c_2


###
# Set up fixes
###
thermo_style   custom   step  temp enthalpy c_1
fix 1 all nve   ###NVE ensemble

fix 2 all   langevin   1.0 1.0 1.0  778655   ###Langevin integrator Tstart Tstop 1/friction rndseed


##### Sample thermodynamic info  (temperature, energy, pressure, etc.) #####
thermo 1000









############################################################################

###
# set timestep of integrator

timestep 0.01

###
# run integration for a number of steps
###
#run 0
#variable r equal c_1
#if "$r < 63.1" then "quit 1"

# lj potential minimum, cause molecule to explore
run 100000
Generated 0 of 0 mixed pair_coeff terms from geometric mixing rule
Last active /omp style is angle_style cosine/omp
Neighbor list info ...
  update: every = 1 steps, delay = 1 steps, check = yes
  max neighbors/atom: 2000, page size: 100000
  master list distance cutoff = 5.1224615
  ghost atom cutoff = 5.1224615
  binsize = 2.5612308, bins = 781 781 781
  1 neighbor lists, perpetual/occasional/extra = 1 0 0
  (1) pair lj/cut/omp, perpetual
      attributes: half, newton on, omp
      pair build: half/bin/newton/omp
      stencil: half/bin/3d
      bin: standard
WARNING: Communication cutoff 5.12246152962189 is shorter than a bond length based estimate of 5.455. This may lead to errors. (src/comm.cpp:723)
Per MPI rank memory allocation (min/avg/max) = 1862 | 1862 | 1862 Mbytes
   Step          Temp         Enthalpy         c_1      
         0   0              13.266054      81.642447    
      1000   1.0078842      18.678043      80.952494    
      2000   0.96071763     18.731859      80.250606    
      3000   0.98270757     19.331486      79.93        
      4000   1.0137626      19.594273      79.407024    
      5000   1.0112119      19.501793      79.084234    
      6000   1.0277801      19.253252      78.743481    
      7000   1.0269635      19.835944      78.508548    
      8000   0.98440266     19.956115      78.213217    
      9000   1.0124565      20.026057      77.935358    
     10000   0.98686675     19.983485      77.586804    
     11000   1.0411291      19.749076      77.402216    
     12000   1.003321       19.850584      77.141511    
     13000   1.0046725      19.695495      76.853033    
     14000   1.0128421      20.058627      76.642234    
     15000   0.9707561      20.284795      76.792029    
     16000   1.0101675      19.783552      76.575747    
     17000   0.9613347      19.905243      76.44504     
     18000   1.0262884      19.912133      76.343389    
     19000   0.98379045     20.120802      76.097903    
     20000   1.0236138      20.417941      75.997354    
     21000   0.99775625     19.961682      75.852518    
     22000   1.0166779      20.193797      75.790423    
     23000   1.0088083      19.987685      75.696034    
     24000   1.0596752      20.64662       75.517938    
     25000   1.0077499      20.540472      75.308565    
     26000   0.97655545     20.094852      75.127059    
     27000   1.0023069      20.48525       75.078177    
     28000   1.0493747      20.23181       75.027684    
     29000   0.99296629     20.001344      74.682043    
     30000   0.99767157     20.349266      74.841532    
     31000   0.99656681     20.180111      74.796004    
     32000   1.0465986      20.254775      74.583908    
     33000   0.96711438     19.732934      74.317276    
     34000   0.97323139     19.71752       74.09678     
     35000   0.98203843     20.334941      73.929756    
     36000   1.0094791      20.293771      73.731943    
     37000   0.96403855     20.325615      73.68275     
     38000   0.98216288     20.171642      73.548198    
     39000   0.98130116     20.425495      73.562261    
     40000   0.94626123     20.365727      73.451606    
     41000   0.96999617     20.070419      73.399076    
     42000   1.009714       19.838407      73.437399    
     43000   0.98464562     20.09063       73.214034    
     44000   1.0341149      20.217711      72.942457    
     45000   1.0303472      19.926572      72.921074    
     46000   0.98805764     20.5181        72.770827    
     47000   0.99080553     20.471634      72.553983    
     48000   0.95673736     20.161247      72.203258    
     49000   0.99492939     20.441721      72.120772    
     50000   0.9996543      20.244378      71.897859    
     51000   0.94912804     20.321817      71.778972    
     52000   0.98797662     20.111939      71.55973     
     53000   0.97766268     20.358328      71.449235    
     54000   1.0013633      20.438436      71.344483    
     55000   1.019458       20.768039      71.244324    
     56000   0.99716496     20.74908       71.092928    
     57000   0.99553913     20.615977      71.019215    
     58000   0.98848734     20.252307      71.052032    
     59000   0.98813202     19.978312      70.978084    
     60000   1.010496       21.175613      70.715076    
     61000   1.0175821      20.10354       70.649456    
     62000   0.95623986     20.146318      70.49585     
     63000   1.0085651      20.528649      70.441411    
     64000   1.0205077      20.582739      70.441885    
     65000   0.98561861     20.17884       70.270274    
     66000   1.0035239      20.381559      70.196008    
     67000   0.998883       19.963251      70.220641    
     68000   1.0353978      20.156289      70.148174    
     69000   0.99098238     20.283973      70.101822    
     70000   0.97040895     20.550664      70.233498    
     71000   1.021407       20.412608      70.225209    
     72000   1.003856       20.498986      70.149565    
     73000   1.0075582      20.162001      70.10086     
     74000   1.0280334      20.469133      70.032703    
     75000   1.0152223      20.740945      70.002582    
     76000   1.0073678      20.070344      70.012897    
     77000   0.99560734     20.533436      69.968518    
     78000   0.99984391     20.509886      69.874744    
     79000   0.93335469     19.595343      69.891759    
     80000   1.016784       20.542327      69.834766    
     81000   0.97592927     20.393089      69.642811    
     82000   0.99772917     20.373044      69.566379    
     83000   1.0015717      20.629827      69.543169    
     84000   0.98900628     20.642809      69.56744     
     85000   1.0152293      20.616722      69.662573    
     86000   1.0130835      20.355117      69.546438    
     87000   1.0211433      20.328138      69.464959    
     88000   1.035129       20.214299      69.459917    
     89000   0.97116329     20.769283      69.481863    
     90000   1.0542211      20.406487      69.4517      
     91000   1.0037302      20.731776      69.460105    
     92000   1.0171989      19.604396      69.537411    
     93000   1.019129       20.455817      69.4181      
     94000   0.99617526     20.959058      69.364227    
     95000   1.0417218      20.659541      69.347617    
     96000   0.98328334     20.623473      69.267393    
     97000   0.99514831     20.310863      69.072346    
     98000   1.0042742      19.950577      68.894781    
     99000   0.9949527      20.352346      68.953828    
    100000   0.9432972      20.188964      68.572926    
Loop time of 323.668 on 2 procs for 100000 steps with 1189 atoms

Performance: 266940.185 tau/day, 308.959 timesteps/s
95.8% CPU use with 1 MPI tasks x 2 OpenMP threads

MPI task timing breakdown:
Section |  min time  |  avg time  |  max time  |%varavg| %total
---------------------------------------------------------------
Pair    | 1.6798     | 1.6798     | 1.6798     |   0.0 |  0.52
Bond    | 2.5752     | 2.5752     | 2.5752     |   0.0 |  0.80
Neigh   | 312.91     | 312.91     | 312.91     |   0.0 | 96.68
Comm    | 0.038253   | 0.038253   | 0.038253   |   0.0 |  0.01
Output  | 0.36963    | 0.36963    | 0.36963    |   0.0 |  0.11
Modify  | 5.7209     | 5.7209     | 5.7209     |   0.0 |  1.77
Other   |            | 0.373      |            |       |  0.12

Nlocal:           1189 ave        1189 max        1189 min
Histogram: 1 0 0 0 0 0 0 0 0 0
Nghost:              0 ave           0 max           0 min
Histogram: 1 0 0 0 0 0 0 0 0 0
Neighs:          10616 ave       10616 max       10616 min
Histogram: 1 0 0 0 0 0 0 0 0 0

Total # of neighbors = 10616
Ave neighs/atom = 8.9285114
Ave special neighs/atom = 1.9983179
Neighbor list builds = 1206
Dangerous builds = 0

# Replace lj potential, now collapse
pair_style      lj/cut 3

# Cutoff simul when gyration under 7
# Variable created with equal requires v_ + 'name'
fix 3 all halt 1000 v_rog < 7

run 3000000
Generated 0 of 0 mixed pair_coeff terms from geometric mixing rule
Last active /omp style is angle_style cosine/omp
Per MPI rank memory allocation (min/avg/max) = 1862 | 1862 | 1862 Mbytes
   Step          Temp         Enthalpy         c_1      
    100000   0.9432972      19.269355      68.572926    
    101000   1.0170993      19.408477      68.531239    
    102000   0.99674646     19.165878      68.290129    
    103000   1.0493837      19.749876      68.130932    
    104000   0.98612131     19.531994      68.15261     
    105000   1.014795       18.922127      67.813177    
    106000   1.0363662      19.094745      67.736575    
    107000   0.99839183     18.324864      67.547529    
    108000   0.96458725     18.685476      67.52369     
    109000   0.95556024     18.547123      67.403591    
    110000   1.0002242      18.585346      67.268962    
    111000   0.99430307     18.438148      67.108535    
    112000   1.026134       19.046513      67.057701    
    113000   1.0106478      18.156392      66.942186    
    114000   0.9835125      18.300475      66.687281    
    115000   0.99703307     18.433906      66.524265    
    116000   1.0462245      19.056618      66.458507    
    117000   0.98141        18.066461      66.150774    
    118000   1.000453       17.59851       66.054915    
    119000   1.0534797      18.076075      65.7394      
    120000   1.0017236      18.004695      65.508893    
    121000   1.0505585      18.034241      65.533912    
    122000   0.98866174     18.277028      65.54894     
    123000   0.99562237     18.537488      65.540246    
    124000   0.99221817     17.950281      65.551123    
    125000   0.95512743     17.41749       65.492296    
    126000   1.0143888      18.014706      65.317599    
    127000   0.99724034     17.950652      65.250504    
    128000   1.0402967      18.061454      65.180352    
    129000   1.0079825      17.488091      65.179483    
    130000   0.98754169     18.08216       64.986907    
    131000   1.0517397      18.344222      65.044823    
    132000   1.0132401      18.620432      65.050338    
    133000   1.0426876      17.968093      65.12319     
    134000   1.0138056      17.432455      65.315681    
    135000   1.0104053      18.182757      65.120188    
    136000   1.0153361      18.17121       65.057596    
    137000   0.99263043     18.308502      64.84651     
    138000   0.98841518     17.615692      64.834293    
    139000   1.0033839      17.838393      64.666872    
    140000   0.98844718     18.675072      64.650791    
    141000   0.97078956     18.272479      64.532224    
    142000   0.99557012     18.096048      64.411793    
    143000   1.0216391      18.386723      64.27274     
    144000   0.99406906     18.046189      64.011011    
    145000   0.98977325     18.310735      64.024229    
    146000   1.0115476      18.308332      64.039063    
    147000   1.0071104      17.944942      63.962453    
    148000   1.0266551      17.81631       63.991547    
    149000   0.97118871     18.104993      63.996748    
    150000   1.0053027      18.406522      63.940399    
    151000   0.97811775     18.304968      63.933593    
    152000   0.96548038     18.152798      63.91484     
    153000   0.99910489     18.417536      63.694201    
    154000   0.98311228     18.063899      63.841219    
    155000   0.96603659     17.949908      63.837996    
    156000   1.0351528      18.08678       63.785549    
    157000   1.0289697      17.872891      63.64489     
    158000   0.98245969     18.083762      63.572169    
    159000   1.0155753      17.778512      63.427395    
    160000   1.0173636      17.949496      63.591896    
    161000   1.0085618      17.935895      63.624548    
    162000   1.0307815      18.178166      63.4952      
    163000   1.0422818      18.068119      63.597021    
    164000   1.0250333      17.801083      63.657833    
    165000   0.98745861     18.219925      63.740688    
    166000   1.009157       17.758278      63.959692    
    167000   1.0328279      18.083732      64.231305    
    168000   0.9657727      17.476496      64.042953    
    169000   1.0345736      18.166634      63.938473    
    170000   0.98921421     18.488496      63.814844    
    171000   1.0272127      17.947177      63.798867    
    172000   1.0016485      18.402931      63.674522    
    173000   0.97431944     17.998722      63.478063    
    174000   1.0105386      17.874628      63.300884    
    175000   0.9985242      18.237364      63.143133    
    176000   1.0532331      18.351515      62.917457    
    177000   1.0305886      18.327549      62.726336    
    178000   0.9918347      18.048612      62.563158    
    179000   1.0341327      18.141304      62.489736    
    180000   0.9675634      17.433046      62.352169    
    181000   1.0312355      18.517761      62.116158    
    182000   0.99317001     18.132788      61.96501     
    183000   1.0181374      18.376849      61.945941    
    184000   0.96048557     18.175228      61.467335    
    185000   1.0201421      18.102539      61.334977    
    186000   0.96105346     18.49785       61.06268     
    187000   1.0155445      17.978301      60.696399    
    188000   1.020697       17.872774      60.735693    
    189000   1.01473        17.702339      60.572724    
    190000   1.0230762      18.07549       60.421826    
    191000   0.97175888     17.900862      60.349478    
    192000   0.99133884     17.580406      60.353335    
    193000   1.0217972      17.686847      60.252787    
    194000   1.0209869      18.421609      60.084927    
    195000   1.0034682      17.292424      60.08594     
    196000   0.97719879     17.515651      59.951137    
    197000   0.96118084     17.831112      59.92731     
    198000   0.99280228     17.649727      59.878196    
    199000   0.99534317     17.76576       59.979726    
    200000   0.98294584     17.91397       60.128322    
    201000   1.0119432      17.953289      60.098288    
    202000   0.96060804     17.862752      60.093632    
    203000   0.97831677     18.211238      60.022373    
    204000   0.97692994     18.400448      60.003873    
    205000   1.0277826      18.025562      59.960785    
    206000   0.98392814     17.848607      59.871016    
    207000   0.98499872     18.150343      59.767435    
    208000   1.0013643      18.059596      59.457087    
    209000   1.0464372      18.490027      59.570029    
    210000   1.0124465      17.601311      59.531546    
    211000   1.0158865      17.516644      59.559974    
    212000   1.0107373      18.206476      59.250548    
    213000   1.0214765      17.697981      59.204213    
    214000   1.0236205      17.889183      59.208684    
    215000   0.99999717     17.680431      59.023874    
    216000   1.0089038      18.023155      58.765851    
    217000   1.0323877      18.064977      58.818452    
    218000   1.0500119      17.994861      58.642218    
    219000   1.0238576      17.965445      58.730541    
    220000   0.9995196      18.592695      58.797021    
    221000   1.0123267      18.362714      58.608602    
    222000   0.98179129     18.089623      58.569202    
    223000   0.99051117     18.096213      58.318841    
    224000   0.94981683     17.894643      58.119125    
    225000   1.0047172      18.094019      57.975461    
    226000   0.98375995     18.037788      57.863966    
    227000   0.9590047      17.993831      57.705505    
    228000   0.97997025     18.011318      57.542969    
    229000   1.0212673      18.161145      57.371522    
    230000   0.98338953     17.695454      57.379087    
    231000   0.97278151     18.116892      57.028245    
    232000   1.0063611      17.948658      56.875646    
    233000   1.007196       17.993021      56.770704    
    234000   1.0020337      17.543321      56.811885    
    235000   1.0042319      17.964897      56.937501    
    236000   0.99958415     17.65005       56.900288    
    237000   0.98146832     17.66442       56.837957    
    238000   1.0014519      17.834848      56.962004    
    239000   1.036083       17.827384      56.753589    
    240000   0.99515475     17.741507      56.816214    
    241000   1.0231041      17.952303      56.679617    
    242000   0.99943266     17.385389      56.576022    
    243000   1.0146806      17.779418      56.522748    
    244000   0.98247178     18.266567      56.456331    
    245000   0.998615       17.906091      56.093706    
    246000   1.022676       17.989563      56.112277    
    247000   1.0074463      18.022607      55.988257    
    248000   1.0121889      17.971708      56.089112    
    249000   0.98224667     18.143461      55.921995    
    250000   1.0082128      17.367221      55.963426    
    251000   1.0093743      17.880886      55.997705    
    252000   1.00793        17.911735      55.931738    
    253000   0.99565306     18.047831      55.815638    
    254000   1.0010617      18.155699      55.753582    
    255000   0.97457293     17.946977      55.567506    
    256000   1.0010568      17.671501      55.602449    
    257000   0.99714681     17.884022      55.703978    
    258000   0.99752653     17.843697      55.573553    
    259000   1.0101829      17.759518      55.612232    
    260000   1.0146124      18.185127      55.588323    
    261000   0.9601536      17.333601      55.298765    
    262000   1.0371156      17.861354      55.202217    
    263000   1.0229358      18.03643       55.113329    
    264000   1.001464       17.346387      55.064902    
    265000   0.98270078     17.556673      54.937088    
    266000   1.01162        18.104666      54.842916    
    267000   0.98372272     17.481267      54.725085    
    268000   0.98240317     17.776719      54.990449    
    269000   1.03559        17.890529      55.023279    
    270000   1.0232592      18.082224      54.950351    
    271000   0.98010305     18.089528      54.910202    
    272000   1.0030908      17.742037      54.892325    
    273000   1.0043332      17.825783      54.892856    
    274000   1.0648798      18.463591      54.82544     
    275000   1.008997       17.437633      54.640747    
    276000   0.98832288     17.823767      54.48393     
    277000   1.0363714      17.741858      54.565104    
    278000   0.9884876      18.100265      54.390133    
    279000   1.0105579      17.815553      54.279055    
    280000   0.99757145     18.477531      54.291609    
    281000   0.96265634     17.765575      54.06633     
    282000   1.0337651      17.8263        54.24451     
    283000   1.0250521      17.441885      54.243459    
    284000   1.0109934      17.484821      54.099372    
    285000   0.96519863     17.213418      54.217309    
    286000   1.0273876      18.094944      54.109258    
    287000   0.99485111     17.807309      53.87932     
    288000   1.0004505      17.963331      53.731888    
    289000   0.99241072     18.285802      53.630643    
    290000   1.0304394      17.881176      53.54742     
    291000   0.95163305     17.400368      53.607672    
    292000   0.9944193      17.314829      53.514329    
    293000   1.0196456      17.353128      53.536277    
    294000   0.97308466     17.975689      53.610798    
    295000   0.9640905      18.126593      53.586498    
    296000   0.97599316     17.508835      53.350728    
    297000   1.008715       17.991991      53.320597    
    298000   1.0160541      17.887299      53.337315    
    299000   0.98799307     17.637064      53.313961    
    300000   0.97232355     17.290868      53.151681    
    301000   0.97211778     17.725823      53.146913    
    302000   1.0188473      17.790458      53.269452    
    303000   0.96877588     17.759673      53.240492    
    304000   1.0368864      17.319551      53.114665    
    305000   0.97150261     17.476785      53.151496    
    306000   1.0470818      17.681922      52.974047    
    307000   0.98505795     17.587084      52.994471    
    308000   1.0155004      18.401317      53.040125    
    309000   0.97587779     17.289629      53.001417    
    310000   0.97910127     17.759787      52.837487    
    311000   0.97376801     17.226647      52.862188    
    312000   1.0115821      17.803152      52.716671    
    313000   0.99759116     17.454916      52.743802    
    314000   1.0034238      18.877087      52.884613    
    315000   1.0075719      17.71974       52.813137    
    316000   0.973936       17.897079      52.704402    
    317000   0.99615477     17.409967      52.739357    
    318000   1.0051748      17.597222      52.683396    
    319000   0.95900696     18.015341      52.697333    
    320000   0.98575249     17.365084      52.697471    
    321000   1.0076834      17.85438       52.728672    
    322000   1.0098131      17.40482       52.912021    
    323000   0.98486652     17.702613      52.80916     
    324000   0.98184823     17.976877      52.804317    
    325000   0.97565866     17.789772      52.708218    
    326000   1.0032623      17.5042        52.713063    
    327000   0.99014401     17.41454       52.452594    
    328000   1.0263094      17.475391      52.505818    
    329000   0.99348926     17.535326      52.343656    
    330000   1.0074682      17.558957      52.133806    
    331000   0.98775252     17.841326      52.059826    
    332000   0.96902412     17.312094      51.970132    
    333000   0.98498196     17.733965      52.027434    
    334000   0.98769679     17.838949      51.927906    
    335000   1.0068496      17.414908      51.951789    
    336000   0.9828275      17.564008      51.743974    
    337000   0.9787728      17.744041      51.497739    
    338000   0.97501531     17.607011      51.537109    
    339000   0.95873028     17.697875      51.620846    
    340000   1.0539869      17.551806      51.577542    
    341000   0.98498024     17.770003      51.540915    
    342000   1.0002159      17.873773      51.690949    
    343000   0.95463809     17.578689      51.673153    
    344000   1.0030835      17.631671      51.849782    
    345000   1.0071804      17.429025      52.073254    
    346000   1.00167        17.963193      51.934891    
    347000   0.99138013     17.645618      52.020582    
    348000   0.98991392     17.707653      52.017904    
    349000   1.0070465      17.23301       51.90864     
    350000   1.0144681      17.768768      51.909597    
    351000   1.0267229      17.582886      51.879061    
    352000   0.98217437     18.206455      51.70473     
    353000   1.0334894      17.569053      51.452867    
    354000   1.0061899      18.182537      51.141571    
    355000   0.98307638     17.348833      51.090203    
    356000   0.98567832     17.860115      50.786488    
    357000   1.0366865      17.518585      50.80872     
    358000   0.96853138     17.924376      50.540039    
    359000   1.0025006      17.147027      50.447595    
    360000   0.9960556      17.547842      50.375059    
    361000   0.99751541     17.632415      50.499234    
    362000   1.0485186      18.31972       50.502689    
    363000   1.0004081      17.804448      50.590154    
    364000   0.98752854     17.561767      50.400038    
    365000   0.99176423     17.566262      50.257927    
    366000   1.0323817      17.864195      49.999626    
    367000   0.96130442     17.25623       49.853104    
    368000   1.0021376      17.628443      49.609739    
    369000   0.96928256     17.751283      49.431739    
    370000   1.0390267      18.276924      49.351818    
    371000   0.98999668     17.836041      49.358792    
    372000   0.99176056     17.221041      49.341621    
    373000   0.97971611     17.437157      49.50082     
    374000   1.0477166      17.851578      49.162628    
    375000   0.97833019     17.502255      49.120045    
    376000   1.033586       18.155797      49.022647    
    377000   0.99755574     17.530529      48.885295    
    378000   1.0198608      17.827633      48.715825    
    379000   0.98881222     17.647898      48.831917    
    380000   0.98323204     17.652893      48.66284     
    381000   1.0209814      17.701178      48.383905    
    382000   1.0138636      17.745246      48.381168    
    383000   0.99717043     18.249553      48.253167    
    384000   1.0134377      17.690529      48.238908    
    385000   1.0413564      17.351085      48.294198    
    386000   0.95227108     17.234378      48.342877    
    387000   0.97592749     17.572806      48.282587    
    388000   0.99820511     18.272386      48.302676    
    389000   1.0090995      17.538895      48.164936    
    390000   1.0656231      17.950998      47.900318    
    391000   1.0006491      17.558648      47.926699    
    392000   1.0158037      17.860283      47.978645    
    393000   1.0044655      17.809711      48.082487    
    394000   1.0231724      17.930373      47.883443    
    395000   1.0156605      18.360414      47.800612    
    396000   1.0500065      17.89113       47.695021    
    397000   0.97157052     17.755815      47.826484    
    398000   1.0353373      17.796363      47.739891    
    399000   1.0094093      17.29145       47.903977    
    400000   0.99239382     18.203815      47.700446    
    401000   0.97665946     17.978921      47.634807    
    402000   1.0028672      17.92828       47.698185    
    403000   1.0184486      17.663637      47.729807    
    404000   0.99006585     17.538818      47.599466    
    405000   1.0223651      17.385922      47.367082    
    406000   1.0172074      18.286154      47.511003    
    407000   1.0561734      17.741105      47.42326     
    408000   1.0408031      18.118749      47.242594    
    409000   0.98869955     17.123904      47.296413    
    410000   0.99524143     17.557857      47.21032     
    411000   0.96985192     18.217316      47.36334     
    412000   0.97830477     17.54988       47.355606    
    413000   0.97441236     17.430297      47.251922    
    414000   0.95875185     17.824696      46.943207    
    415000   0.99460507     17.416396      46.885603    
    416000   1.0246106      17.806001      46.960487    
    417000   1.0013947      17.654484      46.868958    
    418000   1.0040319      17.795146      46.903601    
    419000   0.99138908     17.963083      46.921487    
    420000   0.98908581     17.421857      46.689267    
    421000   0.99931295     17.98404       46.727116    
    422000   1.0046714      17.501062      46.682241    
    423000   0.99189509     17.455489      46.658033    
    424000   1.0260804      18.158781      46.848093    
    425000   0.99273394     17.525295      46.933509    
    426000   0.97182155     17.546498      46.955539    
    427000   1.0139766      18.358161      46.811915    
    428000   1.0427876      17.757724      46.899988    
    429000   1.002005       17.452321      46.755975    
    430000   0.98941648     17.340682      46.791946    
    431000   1.0310206      17.707623      46.57528     
    432000   1.036754       17.831127      46.496623    
    433000   1.0044598      17.603302      46.319552    
    434000   0.98361796     17.937159      46.232547    
    435000   1.022124       17.355077      46.16927     
    436000   0.98840365     17.699266      45.930877    
    437000   0.94120722     16.785843      45.660946    
    438000   0.97833034     17.442261      45.579321    
    439000   1.0529461      17.875548      45.460842    
    440000   1.0430115      17.646183      45.394569    
    441000   1.0185003      18.093524      45.233654    
    442000   0.98947815     17.724942      45.253851    
    443000   0.99036068     17.646404      45.096443    
    444000   1.0142293      17.773537      45.100307    
    445000   0.96914457     17.302433      45.085317    
    446000   0.96219701     17.835679      45.037965    
    447000   1.0421493      17.636244      45.054909    
    448000   0.95912444     17.498279      44.857548    
    449000   1.0411753      18.315675      44.909333    
    450000   0.98206863     17.512075      44.865927    
    451000   1.0248335      17.855473      44.83403     
    452000   0.99831914     17.28883       44.601225    
    453000   1.0034191      17.326879      44.207905    
    454000   1.0212021      17.888151      44.048415    
    455000   0.97885168     17.392647      44.106496    
    456000   1.0351397      17.598523      44.023107    
    457000   0.96360337     17.512757      43.750648    
    458000   1.0050365      17.533011      43.621574    
    459000   1.0170418      17.938346      43.497004    
    460000   1.004272       17.59859       43.201255    
    461000   0.96624574     17.577804      43.135728    
    462000   1.0028004      17.466486      43.048258    
    463000   0.96090541     17.471225      42.917309    
    464000   1.0214735      17.617749      42.963283    
    465000   1.0075573      17.758962      42.882368    
    466000   0.99529942     17.244143      42.97842     
    467000   0.99727693     17.034058      43.204058    
    468000   0.98203143     17.629758      43.062249    
    469000   1.0317975      17.835231      42.734046    
    470000   0.99890658     17.642646      42.712372    
    471000   1.0028004      16.807569      42.5216      
    472000   0.99513756     17.468562      42.336619    
    473000   0.9930101      17.88271       42.397296    
    474000   1.0231922      17.437662      42.414764    
    475000   0.96582503     17.974614      42.412345    
    476000   1.0105975      17.586604      42.354847    
    477000   0.98772317     17.169992      42.007514    
    478000   1.0104103      17.83591       41.748484    
    479000   1.011187       17.856705      41.493803    
    480000   0.94445515     17.593669      41.544764    
    481000   1.0171074      18.368433      41.619926    
    482000   0.98132528     17.557844      41.653822    
    483000   0.99025241     17.233426      41.691506    
    484000   1.0184939      17.800059      41.729811    
    485000   0.9937828      17.714681      41.84888     
    486000   1.0082253      17.82792       41.84865     
    487000   0.97670697     17.904597      41.720462    
    488000   0.99700358     17.529339      41.696047    
    489000   1.0351861      18.275882      41.652943    
    490000   1.020229       17.622738      41.555228    
    491000   1.0065864      17.757051      41.326131    
    492000   0.99914032     17.612781      41.181859    
    493000   1.0173892      17.597948      41.066982    
    494000   0.97091101     17.464866      40.957236    
    495000   1.0203093      17.745198      40.977582    
    496000   1.0445906      17.405669      40.754982    
    497000   1.0043706      17.728333      40.467561    
    498000   1.0372998      17.293225      40.359174    
    499000   1.0178594      17.330646      40.132811    
    500000   1.0016169      17.112853      39.876494    
    501000   0.97585342     18.018986      39.818728    
    502000   1.0234831      17.440475      39.759651    
    503000   0.98838608     17.423887      39.679833    
    504000   0.99555683     17.248447      39.888836    
    505000   0.99585197     17.280644      40.052768    
    506000   0.99179283     17.225011      40.065859    
    507000   1.0147882      17.598399      39.814582    
    508000   0.98255675     17.578324      39.722629    
    509000   0.99853615     17.837414      39.566076    
    510000   0.9893133      17.082731      39.370936    
    511000   1.018259       17.269257      39.425162    
    512000   0.99933338     17.407587      39.442998    
    513000   0.99467272     17.51591       39.229497    
    514000   0.99343592     17.49823       39.082272    
    515000   1.0016642      17.403268      38.942204    
    516000   1.0296471      17.767835      39.180348    
    517000   0.97892362     17.349532      39.036381    
    518000   1.001977       16.952805      38.995463    
    519000   0.99862277     17.30586       38.84922     
    520000   1.0239861      17.835923      38.825698    
    521000   1.0106567      17.645383      38.756512    
    522000   0.98809549     17.328236      38.714619    
    523000   1.0596522      17.709263      38.776345    
    524000   0.99670771     17.301238      38.634918    
    525000   1.0289256      17.245643      38.320602    
    526000   1.0016424      17.867745      38.114274    
    527000   0.96298095     17.260795      38.017665    
    528000   1.0117547      17.506594      37.826991    
    529000   0.97742742     17.013035      37.65416     
    530000   1.0020129      17.843848      37.451162    
    531000   0.99777373     17.320987      37.151537    
    532000   1.0394008      17.951911      37.24136     
    533000   0.9802973      17.161316      37.137728    
    534000   1.0008384      17.366702      37.031447    
    535000   1.0448105      17.396931      36.992225    
    536000   0.98049107     17.497102      36.882774    
    537000   0.99952657     17.60919       36.972046    
    538000   0.97218657     17.362151      36.805811    
    539000   1.0086994      17.67893       36.864165    
    540000   0.98561789     17.57095       36.970718    
    541000   1.0370774      17.442222      37.036488    
    542000   1.0040034      17.918775      36.819488    
    543000   1.0281784      17.84265       36.641092    
    544000   1.0014984      17.614429      36.535667    
    545000   0.99250957     17.512743      36.324205    
    546000   0.96277555     17.189794      36.437537    
    547000   1.0169145      17.682806      36.427878    
    548000   1.0046502      16.667869      36.338142    
    549000   1.0149099      17.439487      36.02871     
    550000   0.97808288     16.954203      35.766374    
    551000   0.9596445      17.175527      35.684109    
    552000   1.0152968      17.821397      35.653669    
    553000   0.98887793     17.948767      35.621791    
    554000   1.0117262      17.480505      35.56836     
    555000   1.0218069      17.232914      35.4562      
    556000   0.96954619     17.370899      35.461293    
    557000   1.0212543      17.177237      35.259344    
    558000   1.0229688      17.488582      35.314808    
    559000   0.99093589     17.647825      35.117081    
    560000   0.97296019     17.492678      35.084954    
    561000   0.97364213     17.601294      35.266523    
    562000   1.0187734      17.222493      35.305623    
    563000   0.98327889     17.420713      35.440199    
    564000   0.99406724     17.517689      35.569443    
    565000   0.97224029     17.174943      35.505041    
    566000   1.0096063      17.33995       35.309864    
    567000   1.0180938      17.14401       35.210765    
    568000   0.98334238     17.78877       35.275846    
    569000   0.97923707     17.098342      35.242781    
    570000   1.0085561      17.776667      34.980028    
    571000   1.0259947      17.989141      34.981568    
    572000   1.0124465      17.803702      34.898118    
    573000   1.0199679      17.167775      35.102392    
    574000   1.0080766      17.361748      35.05173     
    575000   0.96521746     17.078245      34.946796    
    576000   1.0026322      17.465958      34.925884    
    577000   0.99367271     17.623743      34.676877    
    578000   0.98317066     17.39398       34.957259    
    579000   0.98547421     17.904395      34.838792    
    580000   0.9820783      17.159529      34.75029     
    581000   0.96862914     17.058585      34.666569    
    582000   0.99446294     17.394216      34.741222    
    583000   1.0296622      17.294431      34.846418    
    584000   1.0102694      17.14951       34.866568    
    585000   1.0134597      17.347637      34.693779    
    586000   1.0677986      17.742785      34.629959    
    587000   0.95803454     17.345458      34.574674    
    588000   1.0359403      17.804963      34.672236    
    589000   0.96218449     17.785496      34.692553    
    590000   0.97098269     17.391244      34.740405    
    591000   1.0414757      17.541923      34.516072    
    592000   0.96881738     17.268851      34.484118    
    593000   0.97919002     16.918132      34.458524    
    594000   1.0344952      17.896227      34.340024    
    595000   1.0143374      17.520677      34.239017    
    596000   0.98307526     17.532973      33.986182    
    597000   0.97003161     17.559443      33.853506    
    598000   0.99172624     16.836037      33.805294    
    599000   1.0073619      17.036408      33.873103    
    600000   1.0010102      17.901856      33.742353    
    601000   0.98392225     17.117894      33.68061     
    602000   1.0040637      17.235105      33.578279    
    603000   1.004817       17.906588      33.283384    
    604000   1.0216491      17.643723      33.378166    
    605000   0.99778299     17.139678      33.204805    
    606000   0.99753238     17.814258      33.39972     
    607000   1.0027692      17.947617      33.369897    
    608000   0.9769251      17.615995      33.235957    
    609000   1.0227378      17.006691      33.115565    
    610000   1.0157127      18.096385      32.826297    
    611000   1.0112067      17.553689      32.633989    
    612000   1.0049834      17.296314      32.644599    
    613000   1.0105725      17.458212      32.618289    
    614000   1.0104261      16.268551      32.618437    
    615000   1.0085739      16.813518      32.634107    
    616000   0.98782794     17.475604      32.655406    
    617000   1.024099       17.259637      32.622978    
    618000   1.0080847      17.47081       32.647175    
    619000   1.0265785      16.886898      32.690358    
    620000   0.99242887     17.529593      32.694311    
    621000   1.0141215      17.938395      32.616914    
    622000   1.0079382      17.079929      32.622593    
    623000   0.99551088     17.837329      32.60598     
    624000   0.99376553     17.657794      32.510151    
    625000   0.98093503     17.743736      32.378096    
    626000   1.0335506      17.701036      32.423989    
    627000   0.99893239     17.385747      32.374895    
    628000   1.0098354      17.226533      32.16611     
    629000   0.98022773     17.558222      31.923786    
    630000   1.0067246      17.362285      31.823615    
    631000   0.99070932     17.096789      31.736903    
    632000   0.99193583     17.261388      31.890244    
    633000   1.0197153      17.614706      31.966313    
    634000   1.0228795      17.295337      31.85006     
    635000   0.98333819     16.87904       31.673598    
    636000   1.0305871      16.905692      31.585797    
    637000   0.98840594     17.760016      31.227946    
    638000   0.96476284     17.355732      31.193195    
    639000   1.0034324      17.208275      31.365823    
    640000   0.98063727     17.291533      31.484606    
    641000   0.99095976     17.660738      31.375977    
    642000   1.0461389      17.789901      31.4718      
    643000   0.98872525     17.389596      31.428493    
    644000   0.99484087     17.184882      31.375268    
    645000   1.0007824      17.736561      31.323471    
    646000   0.95956486     16.902021      31.310061    
    647000   0.97862099     17.530942      31.56283     
    648000   1.0354875      17.718823      31.634516    
    649000   0.97998814     17.474233      31.762149    
    650000   0.98693602     17.378834      31.697638    
    651000   1.0107781      17.276392      31.59265     
    652000   0.98060352     16.961422      31.430766    
    653000   1.0349501      17.379402      31.248725    
    654000   0.99155577     17.367688      31.315418    
    655000   1.020751       16.958279      31.174547    
    656000   1.0052684      17.119349      31.287318    
    657000   0.95385701     16.819343      31.377829    
    658000   1.006748       16.977282      31.357645    
    659000   0.98472542     16.917744      31.170987    
    660000   0.97035323     18.079363      30.866014    
    661000   0.99276537     17.063618      30.825453    
    662000   1.0073997      17.166677      30.847388    
    663000   0.9925101      17.682367      30.865317    
    664000   1.0553128      17.299396      30.821892    
    665000   1.0246973      17.987464      30.838986    
    666000   0.94285536     17.444855      30.700076    
    667000   0.96743887     17.408847      30.611483    
    668000   0.96854758     17.210003      30.55975     
    669000   0.97773256     17.287671      30.373293    
    670000   0.98896879     17.076518      30.414872    
    671000   0.99154363     16.908534      30.453469    
    672000   0.95624057     17.243842      30.613431    
    673000   1.0163626      17.127429      30.653907    
    674000   1.0155121      17.307902      30.659573    
    675000   0.96854099     16.724892      30.791719    
    676000   1.0242554      17.198521      30.924056    
    677000   1.0038196      16.887719      30.903912    
    678000   0.99179906     17.549655      31.001989    
    679000   0.99676797     16.540651      31.00781     
    680000   0.95274638     16.83456       31.052193    
    681000   0.98888607     17.774911      31.011616    
    682000   0.97950829     17.129748      30.985758    
    683000   1.0043657      17.181118      30.855557    
    684000   1.0437704      16.896518      30.810167    
    685000   0.99333453     16.912387      30.697629    
    686000   1.0027021      17.353792      30.675567    
    687000   1.0087646      17.295531      30.624902    
    688000   1.0098252      17.582458      30.464401    
    689000   0.9819466      16.83402       30.292362    
    690000   1.0048752      16.938163      30.290478    
    691000   1.0323276      17.32767       30.222844    
    692000   1.0208717      17.157979      30.15247     
    693000   1.0383122      17.430691      30.240011    
    694000   0.9584381      17.253984      30.10382     
    695000   1.0168527      17.275884      30.078593    
    696000   0.99967947     17.61103       30.109375    
    697000   0.9910768      17.169375      30.002591    
    698000   1.0018279      17.4531        29.92872     
    699000   0.96716048     17.592471      29.653675    
    700000   0.98920174     17.262889      29.648526    
    701000   0.99322006     17.711184      29.518046    
    702000   0.97755138     16.793352      29.299935    
    703000   1.0097441      17.606117      29.385099    
    704000   1.0201961      17.57491       29.401321    
    705000   1.0027192      17.399651      29.294906    
    706000   1.0022769      17.43788       29.16915     
    707000   0.98659769     17.589892      29.090223    
    708000   0.99562222     17.610493      29.081326    
    709000   0.98297328     17.378386      28.910626    
    710000   1.0128555      17.366281      28.688526    
    711000   1.0299992      17.496062      28.932424    
    712000   1.0160202      17.950269      29.056066    
    713000   0.99579065     16.917881      28.895086    
    714000   0.9966084      17.475849      28.73085     
    715000   0.99140373     17.466604      28.753316    
    716000   0.95619234     17.675086      28.704937    
    717000   0.99422267     17.224202      28.315235    
    718000   1.0170378      17.478689      28.196516    
    719000   0.98250201     17.376967      28.202776    
    720000   1.0039982      17.334211      28.241681    
    721000   1.014514       17.393193      28.212123    
    722000   1.0063337      17.710461      28.161167    
    723000   0.99017033     17.482064      27.935506    
    724000   0.98969997     16.88602       27.897387    
    725000   1.0112424      16.788157      27.73145     
    726000   0.99025821     17.383396      27.589418    
    727000   1.0368361      16.728954      27.313077    
    728000   0.98565161     16.83038       27.335976    
    729000   1.0005595      17.604676      27.183818    
    730000   0.99854336     17.222848      27.255406    
    731000   1.0458859      17.341026      27.270105    
    732000   1.0039106      17.350648      27.183664    
    733000   1.0134651      17.538461      27.011061    
    734000   0.98341031     17.430311      27.058669    
    735000   0.98730058     16.967572      27.192316    
    736000   0.98967835     17.325854      27.139599    
    737000   0.98193958     17.888794      27.08281     
    738000   0.9926548      17.072717      27.170449    
    739000   1.0121133      17.267645      27.078845    
    740000   1.0606649      17.537119      27.073586    
    741000   0.99392752     17.085376      26.86434     
    742000   0.98646839     16.876447      26.788299    
    743000   0.94742071     17.352508      26.837243    
    744000   1.0097801      17.18363       26.8403      
    745000   1.0207347      17.558663      26.684027    
    746000   1.0004378      17.092618      26.425501    
    747000   0.96637635     17.423134      26.445054    
    748000   0.98291847     17.334633      26.287736    
    749000   1.0214234      17.973947      26.211032    
    750000   1.0117402      17.082493      26.051859    
    751000   1.0660197      17.656722      25.97865     
    752000   0.98905213     17.840711      26.237638    
    753000   1.0141768      17.122082      26.113845    
    754000   1.0216183      16.937811      26.091538    
    755000   0.96537841     16.914446      26.25446     
    756000   0.99471449     17.64891       26.270812    
    757000   1.0028597      17.24331       26.118618    
    758000   1.0232419      18.19546       26.040713    
    759000   1.0177784      17.47042       25.779451    
    760000   1.0094686      16.918346      25.566256    
    761000   0.98316291     17.590968      25.48578     
    762000   1.0247439      17.087219      25.477389    
    763000   0.99309139     17.485489      25.503852    
    764000   1.0408865      17.738636      25.267857    
    765000   0.98923393     17.33424       25.268156    
    766000   1.0101393      17.439029      24.963115    
    767000   1.0005656      16.711087      24.772657    
    768000   0.97900206     17.365467      24.644296    
    769000   0.98348144     17.032948      24.491366    
    770000   1.0105261      17.387148      24.724839    
    771000   1.0364788      17.689511      24.48261     
    772000   0.99331803     17.002907      24.243633    
    773000   1.0222729      17.241956      24.110019    
    774000   1.0504505      17.651615      24.149317    
    775000   0.99123597     16.828292      24.022909    
    776000   1.0290818      17.407519      24.040109    
    777000   1.0560495      16.936221      23.898293    
    778000   0.99318875     16.891226      23.720699    
    779000   1.0199084      17.717367      23.7078      
    780000   1.0183657      17.304478      23.583763    
    781000   0.98598824     17.664154      23.515697    
    782000   1.015961       17.226453      23.751045    
    783000   0.95712835     16.911815      23.689023    
    784000   0.97286776     17.642469      23.616589    
    785000   1.0062826      17.064294      23.498277    
    786000   0.99792138     17.409245      23.312211    
    787000   1.0151599      16.92395       23.356174    
    788000   1.0370788      17.552305      23.484883    
    789000   1.0211229      17.123331      23.576407    
    790000   0.98887072     16.97755       23.759596    
    791000   1.0057603      18.001144      23.577894    
    792000   1.0061066      16.958435      23.619239    
    793000   1.0310074      17.720362      23.562291    
    794000   0.9929336      16.991562      23.612932    
    795000   0.96257065     17.381342      23.685781    
    796000   0.95192309     17.373555      23.652205    
    797000   0.98029536     16.413789      23.583633    
    798000   0.99396665     16.861374      23.608103    
    799000   1.0113887      16.733051      23.756137    
    800000   0.99929956     17.949006      23.589322    
    801000   1.0230482      17.027668      23.609276    
    802000   0.96136898     16.789543      23.434538    
    803000   1.0207065      17.509705      23.393094    
    804000   1.0347906      17.15606       23.392605    
    805000   0.97551296     16.974976      23.073236    
    806000   1.0214162      17.444688      23.133511    
    807000   1.0331498      17.732895      22.894635    
    808000   0.95110146     17.053597      22.614169    
    809000   1.0173381      17.221028      22.603224    
    810000   1.0342658      17.293538      22.423341    
    811000   1.0011786      16.957338      22.202252    
    812000   0.99717438     17.678646      22.167806    
    813000   1.0161529      17.174076      22.443797    
    814000   1.048639       17.360496      22.260618    
    815000   1.0035562      16.796299      22.148702    
    816000   1.0094399      17.53007       22.137392    
    817000   0.99341327     18.041857      22.260206    
    818000   1.0542966      17.557346      22.367631    
    819000   1.0073862      16.821348      22.516906    
    820000   0.97142417     16.998218      22.376293    
    821000   1.0187089      16.982635      22.357552    
    822000   1.0089235      17.290548      22.248029    
    823000   0.99216855     17.630021      22.001191    
    824000   1.0043734      16.822273      21.910491    
    825000   0.99679556     17.044714      21.812685    
    826000   0.97909434     17.276871      21.677785    
    827000   1.0019503      17.73618       21.594205    
    828000   1.0330402      17.223092      21.502319    
    829000   0.96117032     17.024956      21.605986    
    830000   1.0427135      17.207926      21.700189    
    831000   1.0268353      16.658184      21.459797    
    832000   1.007426       17.007191      21.425667    
    833000   1.0507749      17.074853      21.459585    
    834000   0.98155928     16.923869      21.375794    
    835000   0.9931194      16.806367      21.228299    
    836000   0.97379168     17.040419      21.284741    
    837000   0.9861406      17.411919      21.283587    
    838000   0.99180523     17.829354      21.40155     
    839000   1.0067852      17.409578      21.446335    
    840000   0.98307629     17.287482      21.470554    
    841000   1.0213378      17.175485      21.494268    
    842000   1.0144316      16.80047       21.485238    
    843000   0.99585458     17.276105      21.405396    
    844000   1.0008283      16.960844      21.694418    
    845000   1.0049041      17.424649      21.663094    
    846000   0.99333493     17.505623      21.496273    
    847000   1.018626       17.019878      21.456078    
    848000   0.99793075     17.280845      21.616747    
    849000   0.97958679     17.492221      21.522338    
    850000   1.0012522      17.59582       21.517828    
    851000   1.0305663      16.660845      21.545629    
    852000   0.97483634     17.706045      21.751989    
    853000   1.001249       17.249188      21.709202    
    854000   1.0361524      17.638961      21.675477    
    855000   0.98122322     17.286855      21.629705    
    856000   1.0078241      17.168707      21.497755    
    857000   0.99615306     17.460073      21.558895    
    858000   0.96125649     17.345988      21.34981     
    859000   1.0637605      17.944771      21.213988    
    860000   1.0527846      17.687596      21.288212    
    861000   0.98661632     17.506649      21.245871    
    862000   0.95850117     17.066016      21.009138    
    863000   1.0154764      17.400815      20.825479    
    864000   0.97880993     17.17563       20.68652     
    865000   1.0020081      17.38319       20.655307    
    866000   1.0069339      17.205675      20.70109     
    867000   1.0084616      16.925075      20.529746    
    868000   0.9778597      17.425023      20.290009    
    869000   0.96510592     16.667931      20.437019    
    870000   0.94963226     17.027029      20.458669    
    871000   1.0372657      17.0509        20.521346    
    872000   1.0386682      17.752384      20.431633    
    873000   0.99230139     17.288752      20.258284    
    874000   0.98913047     17.650828      20.104598    
    875000   1.0233422      17.120676      20.041848    
    876000   1.0041692      17.375459      20.023808    
    877000   0.99848254     16.97206       20.046386    
    878000   1.0637983      17.561526      20.200343    
    879000   0.9800756      16.687893      20.15356     
    880000   0.96994596     17.124926      20.383585    
    881000   1.0108402      17.626819      20.238782    
    882000   1.0198017      17.699765      20.202721    
    883000   0.98627549     16.724434      20.208488    
    884000   1.0150172      17.032101      20.062997    
    885000   1.008471       17.477236      20.319652    
    886000   1.0283298      17.573478      20.496735    
    887000   0.97828799     17.269119      20.443346    
    888000   0.97026991     17.104718      20.53313     
    889000   1.012389       17.234225      20.530631    
    890000   0.99636735     17.057861      20.450643    
    891000   1.0384752      17.283785      20.377135    
    892000   1.0091238      17.209071      20.252521    
    893000   0.98588397     17.250245      20.193916    
    894000   0.9891089      17.781461      19.997624    
    895000   1.0038649      17.221529      20.028115    
    896000   1.0234132      17.585675      19.986267    
    897000   0.97686935     17.572726      19.792697    
    898000   1.0077503      17.163254      19.668561    
    899000   1.0134519      17.413028      19.609172    
    900000   0.99753855     17.005289      19.514971    
    901000   0.99830165     17.686058      19.541684    
    902000   0.99200333     17.218304      19.500255    
    903000   0.96377756     17.457493      19.551402    
    904000   0.9993248      17.434207      19.538668    
    905000   0.99299809     16.640768      19.335259    
    906000   0.96628453     17.31001       19.422017    
    907000   0.9815269      17.310314      19.384096    
    908000   1.0161478      17.002317      19.537888    
    909000   1.0126509      17.006854      19.504562    
    910000   0.98136544     17.103918      19.485171    
    911000   0.98556891     17.268245      19.402474    
    912000   0.99335243     16.775073      19.348068    
    913000   1.0179873      17.377042      19.282842    
    914000   1.02161        17.159079      19.140836    
    915000   1.0004863      16.765855      19.08182     
    916000   1.0300715      17.668533      19.124091    
    917000   1.0317016      17.472366      19.161815    
    918000   0.99812575     17.66731       19.144942    
    919000   0.9714587      17.173426      19.078936    
    920000   1.0103133      17.293126      19.1478      
    921000   0.98568477     17.297638      19.074268    
    922000   1.0101422      17.328553      18.864172    
    923000   0.96465645     16.81728       18.716826    
    924000   1.0279677      17.225217      18.807844    
    925000   0.95451685     16.704373      18.997681    
    926000   0.97048407     17.282388      18.669367    
    927000   1.0003018      17.237073      18.445542    
    928000   0.96784719     17.369463      18.356897    
    929000   1.0061546      16.987565      18.370702    
    930000   1.0201294      17.312085      18.292675    
    931000   0.99041184     16.964323      18.368425    
    932000   0.99284061     17.037192      18.519109    
    933000   1.009674       17.172601      18.573331    
    934000   0.97148616     16.837489      18.562854    
    935000   1.0182287      17.102072      18.557518    
    936000   1.0192641      16.845569      18.557645    
    937000   1.0108434      17.310945      18.516755    
    938000   1.0100551      17.13265       18.28467     
    939000   0.99849985     16.868809      18.078096    
    940000   1.0080709      17.104295      18.052454    
    941000   0.96968904     17.415866      17.823883    
    942000   1.0072638      17.447223      17.725757    
    943000   0.99291998     17.077885      17.723357    
    944000   0.95627596     16.573167      17.408971    
    945000   1.0034117      17.225547      17.49186     
    946000   1.0066929      16.984671      17.60026     
    947000   0.96403655     16.996024      17.535676    
    948000   0.95970761     16.674876      17.607691    
    949000   1.01235        17.160585      17.731405    
    950000   1.0251635      17.506865      17.755534    
    951000   0.99488712     17.720721      17.826169    
    952000   1.0244617      17.483763      17.81812     
    953000   0.99492954     16.917534      17.685796    
    954000   0.99216464     17.535972      17.798624    
    955000   1.0055233      17.553464      17.620358    
    956000   1.0262454      17.407745      17.650619    
    957000   1.0129954      16.673055      17.671361    
    958000   1.0219091      17.180651      17.651321    
    959000   0.94017416     17.29326       17.75462     
    960000   1.0399389      17.345213      17.763368    
    961000   0.99834601     17.323522      17.653899    
    962000   0.98383865     17.378439      17.589414    
    963000   1.0199479      17.45519       17.398566    
    964000   1.0078383      16.960193      17.211761    
    965000   1.0304315      17.169334      17.290981    
    966000   1.0597224      17.291895      17.132668    
    967000   1.0046557      17.413727      16.775668    
    968000   0.96780851     16.639603      16.520431    
    969000   1.0465934      17.591244      16.375699    
    970000   1.0140562      17.555692      16.036068    
    971000   0.95796983     17.161598      16.029033    
    972000   1.0150281      17.605126      15.931396    
    973000   1.0071442      17.343411      15.628935    
    974000   0.96865989     17.542502      15.715969    
    975000   1.0155347      17.202852      15.481736    
    976000   1.0199699      17.337025      15.630837    
    977000   1.0407559      17.375275      15.697311    
    978000   1.0243421      17.45256       15.834856    
    979000   1.0268865      17.018739      15.724436    
    980000   1.0088672      17.380873      15.621275    
    981000   1.0157114      17.462622      15.502999    
    982000   1.0046925      17.136692      15.28383     
    983000   1.0121438      16.854619      15.309152    
    984000   1.020704       17.185158      15.358292    
    985000   1.0162005      17.536598      15.326455    
    986000   0.9678811      17.148522      15.232148    
    987000   1.0162873      16.452084      15.256257    
    988000   0.96103289     17.142447      15.392912    
    989000   0.97022873     16.711118      15.323224    
    990000   1.0094929      17.703294      15.174057    
    991000   0.99319194     16.826687      14.916034    
    992000   1.0100397      16.819264      14.773884    
    993000   1.0149211      17.017482      14.697566    
    994000   1.0320044      17.962533      14.526109    
    995000   0.99595846     17.183464      14.433863    
    996000   1.0065098      17.105085      14.277538    
    997000   1.0208261      17.439424      14.259041    
    998000   1.0429101      17.995597      13.940724    
    999000   1.0118201      17.472198      13.75035     
   1000000   1.0245679      16.278467      13.713715    
   1001000   0.99628671     16.975443      13.524567    
   1002000   0.97686174     16.899965      13.320018    
   1003000   1.0277249      17.376873      13.178241    
   1004000   1.0025179      16.77619       13.140625    
   1005000   1.0465623      16.917112      13.089001    
   1006000   0.94749511     16.967091      13.10949     
   1007000   1.0199601      17.274343      12.994401    
   1008000   0.99530329     17.124379      12.832774    
   1009000   1.0106693      17.115046      12.91132     
   1010000   0.98781658     17.076683      12.752018    
   1011000   1.0308576      17.166473      12.51916     
   1012000   1.0162438      17.001416      12.546627    
   1013000   0.99624196     17.347298      12.510428    
   1014000   1.0084941      16.898966      12.675062    
   1015000   1.0140581      16.270148      12.456514    
   1016000   0.99741047     16.781986      12.358018    
   1017000   0.99137997     16.9789        12.292376    
   1018000   0.99321549     17.147702      12.154033    
   1019000   1.0187348      16.857893      12.311542    
   1020000   0.94584274     17.121178      12.253768    
   1021000   0.97698338     17.375274      12.236226    
   1022000   1.0078975      17.259853      12.268968    
   1023000   1.0064834      17.148732      12.294962    
   1024000   0.94023936     16.817107      12.283237    
   1025000   0.99046794     17.051571      12.095487    
   1026000   0.98877457     17.454748      11.978989    
   1027000   1.0026594      17.672588      11.962686    
   1028000   1.0069301      17.299737      11.798794    
   1029000   0.97177332     17.019116      11.573466    
   1030000   0.98666179     16.908323      11.368175    
   1031000   0.99955133     16.709779      11.070127    
   1032000   0.99361622     16.840759      11.057855    
   1033000   1.041797       16.896367      11.06514     
   1034000   1.019764       16.707359      10.965382    
   1035000   1.0006518      16.851162      10.995162    
   1036000   0.98078788     17.386966      10.935481    
   1037000   0.98350136     17.122454      11.066224    
   1038000   1.0436522      17.417472      10.993308    
   1039000   0.97249775     17.142418      10.927236    
   1040000   1.0376609      17.95681       10.863163    
   1041000   1.0625229      17.034333      10.770271    
   1042000   0.93202811     17.186091      10.725206    
   1043000   0.96894851     16.339614      10.754929    
   1044000   1.0336212      17.342834      10.811723    
   1045000   0.97501236     16.88175       10.734567    
   1046000   0.97416084     16.971815      10.723523    
   1047000   0.98978565     16.732102      10.594533    
   1048000   1.0092505      17.902021      10.611876    
   1049000   0.99440765     17.417814      10.711298    
   1050000   0.98178666     16.77438       10.711129    
   1051000   1.0096612      17.0269        10.786667    
   1052000   0.99475272     17.326297      10.752816    
   1053000   0.96450939     17.046555      10.571429    
   1054000   0.97874342     16.644676      10.549904    
   1055000   1.036215       17.468021      10.657918    
   1056000   1.0037941      17.058823      10.641794    
   1057000   0.98666011     16.964627      10.709203    
   1058000   0.94915668     17.062263      10.778231    
   1059000   0.97955666     16.739932      10.764302    
   1060000   1.0076639      16.873712      10.690942    
   1061000   0.9889527      16.961         10.533625    
   1062000   0.98691837     17.0331        10.25569     
   1063000   1.0214308      17.083634      10.336327    
   1064000   1.0177332      17.629258      10.227837    
   1065000   1.0519959      17.710083      10.08509     
   1066000   0.99382328     17.369872      10.008985    
   1067000   1.0103538      17.153162      9.9085346    
   1068000   0.9922138      16.957489      9.7916893    
   1069000   1.0198261      17.195101      9.837421     
   1070000   0.99091047     16.806007      9.9031405    
   1071000   0.97589154     16.737731      9.890666     
   1072000   1.0484274      17.14685       9.9811461    
   1073000   1.0264523      17.580674      9.7132789    
   1074000   1.0012604      16.74018       9.9778824    
   1075000   1.0014882      17.186372      9.9749255    
   1076000   0.98920462     17.395918      9.983778     
   1077000   1.0452735      16.991903      9.8556768    
   1078000   0.98167783     16.766925      9.6971052    
   1079000   1.0078524      16.956168      9.7894606    
   1080000   1.0066311      16.79478       9.7392164    
   1081000   1.0087216      17.043209      9.5635603    
   1082000   1.0219651      17.241616      9.4790041    
   1083000   1.0094749      17.374921      9.7520032    
   1084000   1.0140068      17.200405      9.7037577    
   1085000   1.0281271      16.877964      9.4639742    
   1086000   1.0393952      16.855144      9.5909264    
   1087000   1.0244275      17.010448      9.4560902    
   1088000   0.99965243     17.228057      9.2598643    
   1089000   0.99725578     16.868783      9.2617851    
   1090000   0.97244713     17.109389      9.2791398    
   1091000   1.0071491      16.993773      9.2582161    
   1092000   0.99962018     17.213934      9.3017853    
   1093000   1.0154153      17.439685      9.2226813    
   1094000   0.97102953     16.93568       9.1228907    
   1095000   0.96458493     17.369907      9.3095243    
   1096000   1.0074768      16.936652      9.3937811    
   1097000   1.022325       17.039486      9.3713962    
   1098000   1.0020112      16.919999      9.3896437    
   1099000   0.99404581     16.708544      9.4337389    
   1100000   0.949199       17.026349      9.4394621    
   1101000   1.0206897      17.053233      9.4949136    
   1102000   0.99767757     17.256702      9.573312     
   1103000   1.0370194      17.283133      9.4961791    
   1104000   1.0112916      17.323443      9.3854936    
   1105000   0.98992435     16.869838      9.3018385    
   1106000   0.99361351     17.188657      9.2431653    
   1107000   0.98173458     17.306612      9.3434433    
   1108000   1.0519907      17.323537      9.3942046    
   1109000   0.97544254     16.766904      9.3297631    
   1110000   1.0069745      16.694396      9.2264375    
   1111000   1.008541       16.942292      9.0839363    
   1112000   0.97282212     16.350496      9.0924868    
   1113000   0.98201178     16.619539      9.0830946    
   1114000   0.97659638     16.480069      8.8636922    
   1115000   0.98287278     16.807906      8.8719105    
   1116000   0.97898563     17.36866       8.7409894    
   1117000   0.98523529     17.319879      8.7808435    
   1118000   0.99635263     17.175846      8.5946684    
   1119000   1.0512459      17.250897      8.3705516    
   1120000   0.98961134     16.652881      8.0824239    
   1121000   0.98978768     16.849594      7.7650812    
   1122000   1.0210702      16.95983       7.5974597    
   1123000   1.0023887      17.075768      7.4576253    
   1124000   0.95153321     16.891749      7.2438606    
   1125000   0.95267844     17.390786      7.1724696    
Fix halt condition for fix-id 3 met on step 1126000 with value 6.973120636654299 (src/fix_halt.cpp:237)
   1126000   0.9983133      16.788084      6.9731206    
Loop time of 1433.39 on 2 procs for 1026000 steps with 1189 atoms

Performance: 618438.051 tau/day, 715.785 timesteps/s
130.0% CPU use with 1 MPI tasks x 2 OpenMP threads

MPI task timing breakdown:
Section |  min time  |  avg time  |  max time  |%varavg| %total
---------------------------------------------------------------
Pair    | 473.38     | 473.38     | 473.38     |   0.0 | 33.03
Bond    | 27.768     | 27.768     | 27.768     |   0.0 |  1.94
Neigh   | 863.4      | 863.4      | 863.4      |   0.0 | 60.23
Comm    | 0.41582    | 0.41582    | 0.41582    |   0.0 |  0.03
Output  | 3.8375     | 3.8375     | 3.8375     |   0.0 |  0.27
Modify  | 60.492     | 60.492     | 60.492     |   0.0 |  4.22
Other   |            | 4.1        |            |       |  0.29

Nlocal:           1189 ave        1189 max        1189 min
Histogram: 1 0 0 0 0 0 0 0 0 0
Nghost:              0 ave           0 max           0 min
Histogram: 1 0 0 0 0 0 0 0 0 0
Neighs:         282135 ave      282135 max      282135 min
Histogram: 1 0 0 0 0 0 0 0 0 0

Total # of neighbors = 282135
Ave neighs/atom = 237.28764
Ave special neighs/atom = 1.9983179
Neighbor list builds = 8759
Dangerous builds = 0

# This simulation is done
# Move onto the next one
clear
  using 2 OpenMP thread(s) per MPI task
package omp 0
using multi-threaded neighbor list subroutines
next f
jump SELF

Total wall time: 2:18:15
