#atom_style bond #no stiffness
atom_style angle #with stiffness

boundary        p p p
###
# Pair interactions require lists of neighbours to be calculated
###

#neighbor 0.3 bin
neighbor 4 bin

neigh_modify every 1 delay 1 check yes
atom_modify sort 0 0
### Generate RESTART file, SPECIAL format, not a .txt file ###
### Useful if simulation crashes ###

restart 1000000 N1B5/trial2/restarts2/$f.restart
restart 1000000 N1B5/trial2/restarts2/bb280nuc1bl140bn5d30tot700V2.restart
#############################



### READ "start" data file ###

read_data N1B5/trial2/dats2/$f.dat
read_data N1B5/trial2/dats2/bb280nuc1bl140bn5d30tot700V2.dat
Reading data file ...
  orthogonal box = (-1000 -1000 -1000) to (1000 1000 1000)
  1 by 1 by 1 MPI processor grid
  reading atoms ...
  701 atoms
  scanning bonds ...
  4 = max bonds/atom
  scanning angles ...
  10 = max angles/atom
  reading bonds ...
  700 bonds
  reading angles ...
  705 angles
Finding 1-2 1-3 1-4 neighbors ...
  special bond factors lj:    0        0        0       
  special bond factors coul:  0        0        0       
     5 = max # of 1-2 neighbors
     5 = max # of 1-3 neighbors
    10 = max # of 1-4 neighbors
    15 = max # of special neighbors
  special bonds CPU = 0.002 seconds
  read_data CPU = 0.140 seconds

######################

### READ "REstart" data file ###

######################



###
# Define groups (atom type 1 is group 'all')
###
group all type 1
701 atoms in group all


###
# Dump configs - "simple dumpings"
###

###
# Dump configs + box coords
###

dump   1   all   custom   1000  N1B5/trial2/trjs2/$f.lammpstrj  id  x y z  ix iy iz
dump   1   all   custom   1000  N1B5/trial2/trjs2/bb280nuc1bl140bn5d30tot700V2.lammpstrj  id  x y z  ix iy iz
dump_modify   1   format line "%d %.5f %.5f %.5f %d %d %d"

########################################################################


###################################################################
# Stiffness term
#
# E = K * (1+cos(theta)), K>0
#
angle_style   cosine
#change this coefficient to change stiffness (e.g. 1,5,10)
angle_coeff   1 1.0
###################################################################

###################################################################
# Pair interaction between non-bonded atoms
#
#  Lennard-Jones 12-6 potential with cutoff:
#  potential E=4epsilon[ (sigma/r)^12 - (sigma/r)^6]  for r<r_cut
#
#  1.12246 = 2^(1/6) is the minimum of the potential


pair_style      lj/cut 1.12246152962189
#pair_style      lj/cut 3

#
#  pair_modify shift yes adds a constant to the potential such

#  that E(r_cut)=0. Forces remains unchanged.
#

pair_modify     shift yes

#
#  pair_coeff for lj/cut, specify 4:
#    * atom type interacting with
#    * atom type
#    * epsilon (energy units)
#    * sigma (distance units)
#

pair_coeff      1 1 1.0 1.0
###################################################################

###################################################################
# Pair interaction between non-bonded atoms
#
#  soft potential, for PUSHING apart overlapping atoms
#  potential E=A*(1 + cos(pi*r/r_c))
#
#  1.12246 = 2^(1/6) is the cut-off r_c

#pair_style     soft 1.12246152962189

#
#  pair_coeff for soft, specify 3:
#    * atom type interacting with
#    * atom type
#    * A
#
#

#pair_coeff      1 1 100.0
###################################################################

###################################################################
# Pair interaction between bonded atoms
#
# Fene potential + Lennard Jones 12-6:

#
#  E= - 0.5 K R0^2 ln[ 1- (r/R0)^2]
#     + 4epsilon[ (sigma/r)^12 - (sigma/r)^6] + epsilon
#

bond_style   fene


#
# For style fene, specify:
#   * bond type
#   * K (energy/distance^2)
#   * R0 (distance)
#   * epsilon (energy)  (LJ component)
#   * sigma (distance)  (LJ component)
#


special_bonds fene #<=== I M P O R T A N T (new command)
Finding 1-2 1-3 1-4 neighbors ...
  special bond factors lj:    0        1        1       
  special bond factors coul:  0        1        1       
     5 = max # of 1-2 neighbors
    15 = max # of special neighbors
  special bonds CPU = 0.001 seconds

bond_coeff   1   30   2   1.0   1.0


###################################################

###################################################################
# Pair interaction between bonded atoms
#
# Harmonic potential:
#
#  E= K * (R-R0)^2
#

#bond_style   harmonic

#
# For style harmonic, specify:
#   * bond type
#   * K (energy/distance^2)
#   * R0 (distance)
#

#bond_coeff   1   60.0   1.0
#bond_coeff   2   harmonic 0.1   1.0

###################################################
compute 1 all gyration
variable rog equal c_1
#compute 2 all coord/atom cutoff 1.1

#dump 2 all custom 10000 contact_number.dump id c_2


###
# Set up fixes
###
thermo_style   custom   step  temp enthalpy c_1
fix 1 all nve   ###NVE ensemble

fix 2 all   langevin   1.0 1.0 1.0  778655   ###Langevin integrator Tstart Tstop 1/friction rndseed


##### Sample thermodynamic info  (temperature, energy, pressure, etc.) #####
thermo 1000









############################################################################

###
# set timestep of integrator

timestep 0.01

###
# run integration for a number of steps
###
#run 0
#variable r equal c_1
#if "$r < 63.1" then "quit 1"

# lj potential minimum, cause molecule to explore
run 100000
Generated 0 of 0 mixed pair_coeff terms from geometric mixing rule
Last active /omp style is angle_style cosine/omp
Neighbor list info ...
  update: every = 1 steps, delay = 1 steps, check = yes
  max neighbors/atom: 2000, page size: 100000
  master list distance cutoff = 5.1224615
  ghost atom cutoff = 5.1224615
  binsize = 2.5612308, bins = 781 781 781
  1 neighbor lists, perpetual/occasional/extra = 1 0 0
  (1) pair lj/cut/omp, perpetual
      attributes: half, newton on, omp
      pair build: half/bin/newton/omp
      stencil: half/bin/3d
      bin: standard
WARNING: Communication cutoff 5.12246152962189 is shorter than a bond length based estimate of 5.455. This may lead to errors. (src/comm.cpp:723)
Per MPI rank memory allocation (min/avg/max) = 1863 | 1863 | 1863 Mbytes
   Step          Temp         Enthalpy         c_1      
         0   0              13.243784      74.018974    
      1000   0.9874578      18.261393      73.216623    
      2000   1.0609021      18.912567      72.371977    
      3000   0.9912271      18.044901      71.557977    
      4000   1.0440816      18.779444      70.726886    
      5000   0.96239852     18.502524      70.134159    
      6000   1.0015877      18.5589        69.599461    
      7000   1.0065714      18.66708       69.016357    
      8000   1.0368143      19.061147      68.258898    
      9000   1.0199311      19.878317      67.977852    
     10000   1.0125751      18.883993      67.193217    
     11000   1.022722       19.632082      66.52747     
     12000   0.98609468     19.394418      65.83349     
     13000   0.9922074      19.951729      65.695329    
     14000   0.9559906      19.91801       65.406311    
     15000   1.0179682      19.278948      65.02083     
     16000   0.97344396     19.846995      64.581362    
     17000   1.0320708      19.712225      64.404754    
     18000   0.97334845     19.162613      63.954744    
     19000   0.99199753     19.646266      63.567328    
     20000   0.97122353     19.850054      63.53699     
     21000   1.005483       19.896359      63.102759    
     22000   1.0334772      20.347324      62.659988    
     23000   1.0218834      19.759302      62.599814    
     24000   1.1026514      20.400936      62.30042     
     25000   0.99286715     19.648301      61.727612    
     26000   0.97836414     19.922475      61.083608    
     27000   0.9864965      19.908766      61.051008    
     28000   1.0215054      19.956104      60.886035    
     29000   0.97405547     20.202226      60.506883    
     30000   0.9890291      19.983059      60.455552    
     31000   0.91653163     19.744235      60.162004    
     32000   1.008363       20.625529      59.949877    
     33000   0.98031607     19.884744      59.472509    
     34000   1.0558412      19.832904      59.016494    
     35000   0.99616035     20.287143      58.782595    
     36000   0.99312401     20.334999      58.748808    
     37000   1.0040378      19.822898      58.514182    
     38000   0.949622       20.511214      58.320922    
     39000   1.0341906      20.492027      58.038024    
     40000   0.97923599     20.284684      57.866873    
     41000   0.992837       20.181772      57.919887    
     42000   0.99478421     20.227521      58.058943    
     43000   1.0224536      19.583898      58.103368    
     44000   0.95090658     20.2832        57.710998    
     45000   1.021306       19.917543      57.594293    
     46000   0.97997621     20.159934      57.442723    
     47000   1.0099522      20.150949      57.287384    
     48000   0.98711061     19.752226      56.930908    
     49000   0.96153595     19.856951      56.428252    
     50000   0.99865551     19.379671      56.630328    
     51000   0.94780183     19.665218      56.534033    
     52000   1.0040806      20.464617      56.501581    
     53000   0.99228269     20.118984      56.391708    
     54000   0.96553071     19.934565      56.403462    
     55000   0.9987908      20.000869      56.310137    
     56000   1.0756138      20.079276      56.076489    
     57000   1.0437725      20.288875      55.610525    
     58000   1.0257998      20.141183      55.056578    
     59000   1.053245       20.313381      54.848122    
     60000   1.0268001      20.428687      54.189173    
     61000   0.95400216     20.637432      54.012136    
     62000   1.0143494      20.627464      54.006934    
     63000   1.0261538      20.332386      53.763726    
     64000   1.0419127      20.496345      53.578095    
     65000   1.0157116      20.095943      53.525319    
     66000   1.0358635      20.421694      53.382495    
     67000   1.0120231      20.018641      53.309707    
     68000   1.0120779      20.415362      52.961622    
     69000   1.0440666      20.175518      52.518066    
     70000   0.99526941     19.967684      52.533027    
     71000   1.012999       20.279364      52.18025     
     72000   1.0188971      20.721515      52.045564    
     73000   1.0036102      20.087195      51.930652    
     74000   0.95989481     21.259488      51.680762    
     75000   0.96909925     20.269397      51.438222    
     76000   0.97197653     20.601125      51.064864    
     77000   1.003861       20.787808      50.895699    
     78000   1.0494357      19.995052      50.311362    
     79000   0.95740157     20.747258      50.276615    
     80000   1.0320935      20.618616      50.238388    
     81000   1.0724943      20.329147      50.303575    
     82000   1.002493       20.873009      50.014229    
     83000   1.0328338      20.37878       49.918707    
     84000   0.91069003     19.724742      49.695561    
     85000   1.021822       21.016623      49.804971    
     86000   0.9813805      20.578871      49.701373    
     87000   0.95523512     20.019068      49.72594     
     88000   1.0174108      19.965284      49.581207    
     89000   0.98022687     20.77031       49.133585    
     90000   0.95097285     19.477002      48.976134    
     91000   0.99782694     20.69862       48.903097    
     92000   1.0272695      20.390029      48.838666    
     93000   1.0456304      20.78012       48.744404    
     94000   1.0346844      20.538193      48.654099    
     95000   0.97471355     20.381233      48.754835    
     96000   1.00808        20.022371      48.575438    
     97000   1.0322386      21.009429      48.740663    
     98000   1.0108356      20.186181      48.569815    
     99000   1.019583       20.219061      48.155599    
    100000   0.8936461      20.028226      48.186063    
Loop time of 318.828 on 2 procs for 100000 steps with 701 atoms

Performance: 270992.587 tau/day, 313.649 timesteps/s
102.9% CPU use with 1 MPI tasks x 2 OpenMP threads

MPI task timing breakdown:
Section |  min time  |  avg time  |  max time  |%varavg| %total
---------------------------------------------------------------
Pair    | 1.0494     | 1.0494     | 1.0494     |   0.0 |  0.33
Bond    | 1.9156     | 1.9156     | 1.9156     |   0.0 |  0.60
Neigh   | 311.06     | 311.06     | 311.06     |   0.0 | 97.56
Comm    | 0.031838   | 0.031838   | 0.031838   |   0.0 |  0.01
Output  | 0.32397    | 0.32397    | 0.32397    |   0.0 |  0.10
Modify  | 4.1752     | 4.1752     | 4.1752     |   0.0 |  1.31
Other   |            | 0.2721     |            |       |  0.09

Nlocal:            701 ave         701 max         701 min
Histogram: 1 0 0 0 0 0 0 0 0 0
Nghost:              0 ave           0 max           0 min
Histogram: 1 0 0 0 0 0 0 0 0 0
Neighs:           5099 ave        5099 max        5099 min
Histogram: 1 0 0 0 0 0 0 0 0 0

Total # of neighbors = 5099
Ave neighs/atom = 7.2738944
Ave special neighs/atom = 1.9971469
Neighbor list builds = 1107
Dangerous builds = 0

# Replace lj potential, now collapse
pair_style      lj/cut 3

# Cutoff simul when gyration under 7
# Variable created with equal requires v_ + 'name'
fix 3 all halt 1000 v_rog < 7

run 3000000
Generated 0 of 0 mixed pair_coeff terms from geometric mixing rule
Last active /omp style is angle_style cosine/omp
Per MPI rank memory allocation (min/avg/max) = 1863 | 1863 | 1863 Mbytes
   Step          Temp         Enthalpy         c_1      
    100000   0.8936461      19.266369      48.186063    
    101000   1.0475316      19.8935        47.892032    
    102000   0.94757069     19.739602      47.626589    
    103000   1.0246711      19.82214       47.341615    
    104000   0.95898148     19.429716      47.389065    
    105000   0.99406754     18.91291       47.292822    
    106000   1.0697344      19.184575      47.235722    
    107000   1.0902343      19.503628      46.684096    
    108000   1.0106594      19.475146      46.3373      
    109000   0.97895418     19.406727      45.944032    
    110000   0.98699591     19.25756       45.287576    
    111000   0.96546368     18.79399       45.030097    
    112000   1.0205678      19.641166      44.84779     
    113000   1.0528381      19.135662      44.713271    
    114000   0.9586532      18.777122      44.463767    
    115000   0.97056732     19.259062      44.345861    
    116000   0.98310762     19.048137      44.261174    
    117000   0.98002668     18.851356      44.115096    
    118000   1.0071611      19.225131      43.921337    
    119000   0.96229573     18.957766      43.686929    
    120000   1.0037677      19.266611      43.523525    
    121000   0.98177577     19.389691      42.950052    
    122000   1.0475053      19.74743       42.904601    
    123000   1.0143168      18.812106      42.608942    
    124000   0.98037497     19.564646      42.402361    
    125000   0.96322068     19.352978      42.083345    
    126000   1.0244976      18.947563      41.502399    
    127000   0.98001719     18.867554      41.337049    
    128000   1.0093814      18.703997      41.119645    
    129000   1.0465977      18.780401      41.161686    
    130000   1.0231427      19.392956      41.057675    
    131000   1.0247219      18.39648       40.892198    
    132000   0.97121867     18.848805      40.189441    
    133000   0.97067366     19.278084      40.190163    
    134000   1.0363162      18.724775      39.927858    
    135000   0.96787622     18.921349      39.553324    
    136000   0.9768317      19.047645      39.504692    
    137000   0.93025398     18.511304      39.514463    
    138000   1.0192938      18.305902      39.008719    
    139000   1.0024535      18.970705      38.634682    
    140000   0.98373588     19.032244      38.288699    
    141000   1.0270874      18.79204       38.070503    
    142000   0.9986573      18.369752      37.775728    
    143000   1.050701       18.398554      37.658229    
    144000   0.99784034     19.195692      37.316704    
    145000   1.0294085      19.230803      37.248736    
    146000   1.0031018      18.59311       37.28831     
    147000   0.96758265     19.681592      36.945087    
    148000   1.0296232      18.555863      36.551926    
    149000   0.98233472     18.82141       36.426245    
    150000   1.0029084      18.03619       36.365682    
    151000   1.0095285      18.763427      36.125726    
    152000   0.98289028     19.057338      35.743582    
    153000   1.0012789      18.965265      35.593233    
    154000   1.0064607      18.557997      35.546923    
    155000   0.9951456      18.828994      35.424683    
    156000   1.0300308      18.748157      35.131383    
    157000   1.0249343      18.768367      34.605281    
    158000   0.93380473     18.813023      34.401232    
    159000   1.011432       18.687345      33.931435    
    160000   0.9917929      18.654417      33.747945    
    161000   0.9339686      18.343837      33.556054    
    162000   1.0046137      19.166957      33.442316    
    163000   0.96718552     18.001467      33.006059    
    164000   0.98543378     18.632631      32.614588    
    165000   1.0211236      18.16432       32.639352    
    166000   1.0497423      18.964238      32.261495    
    167000   0.98927644     18.788244      32.214196    
    168000   1.004644       18.644339      31.914189    
    169000   1.0143418      18.461904      31.519851    
    170000   1.0239835      18.364119      31.276884    
    171000   0.99700425     18.456652      30.934868    
    172000   0.99595763     18.831482      30.486695    
    173000   1.0621565      19.461542      30.208824    
    174000   1.0087491      18.523553      30.090446    
    175000   0.96801021     18.295627      29.989361    
    176000   1.0055602      18.659825      29.70492     
    177000   1.0180359      18.524473      29.582756    
    178000   0.94147559     18.610126      29.390266    
    179000   0.98783156     18.592343      29.09593     
    180000   1.0232331      19.056972      28.892197    
    181000   0.99901895     18.090997      28.557627    
    182000   0.9586979      18.147544      28.27706     
    183000   0.98865264     18.054879      27.873925    
    184000   0.98869825     17.367284      27.812524    
    185000   1.0199249      18.649434      27.650127    
    186000   1.0022548      18.088522      27.335442    
    187000   0.99248229     18.234905      27.274392    
    188000   0.9930628      18.497453      26.846624    
    189000   1.0064563      18.49762       26.603562    
    190000   1.0096688      18.282319      26.384899    
    191000   0.98755739     18.230475      26.199903    
    192000   0.95522966     18.834132      25.879691    
    193000   1.0091204      19.105014      25.680785    
    194000   0.98376424     18.623947      25.414349    
    195000   0.95659935     18.597454      25.084861    
    196000   0.97785333     17.997295      24.904104    
    197000   0.98472037     19.142308      24.690095    
    198000   0.9893364      18.179625      24.411962    
    199000   1.016335       18.740832      24.282101    
    200000   1.0216655      18.287627      23.94415     
    201000   0.95505677     18.157308      23.75903     
    202000   1.0001961      17.910906      23.607871    
    203000   0.94721863     17.795516      23.294167    
    204000   1.0127794      18.581502      23.214509    
    205000   1.0454371      18.790253      23.046762    
    206000   1.0335022      18.559847      22.774089    
    207000   1.0146232      17.795679      22.315331    
    208000   1.013522       18.199875      22.164458    
    209000   0.97312687     17.945384      21.935559    
    210000   0.99062142     18.237904      21.723405    
    211000   0.96440153     17.997699      21.503007    
    212000   0.95128633     18.305101      21.33582     
    213000   0.96987249     18.691948      21.488131    
    214000   0.96367167     17.724776      21.443435    
    215000   1.0488953      18.20224       21.304859    
    216000   0.9305066      17.582424      20.995284    
    217000   1.0526358      18.647278      20.706861    
    218000   1.0481487      18.454692      20.615019    
    219000   1.065221       18.810391      20.651991    
    220000   1.0838832      18.764309      20.596103    
    221000   1.0054706      18.442174      20.299315    
    222000   1.0499462      18.564654      20.228743    
    223000   0.99241115     17.420488      19.902433    
    224000   0.95471014     18.517282      19.805152    
    225000   0.98202939     18.067648      19.751239    
    226000   0.98360888     18.234563      19.592349    
    227000   1.0361548      18.109476      19.410062    
    228000   1.0387027      18.306499      18.943557    
    229000   1.0388209      18.838168      18.768968    
    230000   0.9549818      17.427817      18.730631    
    231000   0.98352473     18.359759      18.764707    
    232000   1.0021053      17.623552      18.137775    
    233000   1.0253293      18.609872      17.851573    
    234000   0.98938636     17.435095      17.650386    
    235000   1.0042489      17.583795      17.531017    
    236000   1.0075533      18.597012      17.159315    
    237000   1.0238379      17.88385       17.040406    
    238000   1.0206065      18.172472      16.847539    
    239000   1.0490587      18.269285      16.777979    
    240000   1.0284744      17.669046      16.386153    
    241000   1.0085419      18.100419      15.962373    
    242000   1.0453477      18.349188      15.441975    
    243000   0.98510409     17.885016      15.027221    
    244000   0.9891551      16.738324      14.915159    
    245000   0.99093442     19.073846      14.767585    
    246000   1.019059       17.659728      14.550623    
    247000   0.9930365      18.273833      14.424818    
    248000   1.0064088      17.970456      14.428666    
    249000   0.99646664     18.482282      14.56823     
    250000   0.9430632      17.610731      14.44962     
    251000   1.0150233      18.297699      14.393984    
    252000   1.0226704      18.250485      14.232094    
    253000   0.98498266     17.661033      13.965425    
    254000   0.96548823     17.787852      13.768378    
    255000   1.0051443      17.789971      13.389427    
    256000   1.0156686      18.332563      13.371658    
    257000   1.0026591      18.527071      13.269338    
    258000   0.96590042     18.594713      13.472179    
    259000   1.0240154      17.861549      13.391178    
    260000   1.0340902      18.297906      13.432171    
    261000   1.0694472      17.310616      12.941893    
    262000   1.0548295      17.979072      12.6175      
    263000   0.96216477     16.925922      12.268435    
    264000   0.99790067     18.393614      11.972435    
    265000   0.97073129     17.650934      11.615886    
    266000   0.97590421     17.601385      11.204372    
    267000   1.0053116      17.37187       10.953394    
    268000   1.1088855      17.669906      10.652624    
    269000   1.0717038      18.41451       10.322434    
    270000   0.99623192     18.201286      10.159516    
    271000   1.0357331      17.690519      9.9367332    
    272000   0.99307123     17.478811      9.5376288    
    273000   1.0279697      18.185073      9.2627071    
    274000   1.0440664      16.699304      8.8978294    
    275000   1.0193135      18.106675      8.6479687    
    276000   1.0286673      17.137139      8.8418668    
    277000   1.0000963      17.857589      8.8808726    
    278000   1.0145798      17.254883      8.8712432    
    279000   1.0169553      17.910648      8.419816     
    280000   1.0102076      18.271242      8.113533     
    281000   0.97035454     17.233289      7.9135663    
    282000   0.94955751     16.805384      7.6608381    
    283000   0.99344327     17.28548       7.2509273    
Fix halt condition for fix-id 3 met on step 284000 with value 6.926279549270334 (src/fix_halt.cpp:237)
    284000   1.0142412      17.180784      6.9262795    
Loop time of 229.24 on 2 procs for 184000 steps with 701 atoms

Performance: 693492.307 tau/day, 802.653 timesteps/s
117.7% CPU use with 1 MPI tasks x 2 OpenMP threads

MPI task timing breakdown:
Section |  min time  |  avg time  |  max time  |%varavg| %total
---------------------------------------------------------------
Pair    | 25.286     | 25.286     | 25.286     |   0.0 | 11.03
Bond    | 3.6017     | 3.6017     | 3.6017     |   0.0 |  1.57
Neigh   | 191.32     | 191.32     | 191.32     |   0.0 | 83.46
Comm    | 0.063122   | 0.063122   | 0.063122   |   0.0 |  0.03
Output  | 0.58831    | 0.58831    | 0.58831    |   0.0 |  0.26
Modify  | 7.8474     | 7.8474     | 7.8474     |   0.0 |  3.42
Other   |            | 0.5327     |            |       |  0.23

Nlocal:            701 ave         701 max         701 min
Histogram: 1 0 0 0 0 0 0 0 0 0
Nghost:              0 ave           0 max           0 min
Histogram: 1 0 0 0 0 0 0 0 0 0
Neighs:         101724 ave      101724 max      101724 min
Histogram: 1 0 0 0 0 0 0 0 0 0

Total # of neighbors = 101724
Ave neighs/atom = 145.1127
Ave special neighs/atom = 1.9971469
Neighbor list builds = 1744
Dangerous builds = 0

# This simulation is done
# Move onto the next one
clear
  using 2 OpenMP thread(s) per MPI task
package omp 0
using multi-threaded neighbor list subroutines
next f
jump SELF

###
# Reference paper:
# K. Kremer and G. S. Grest
# Dynamics of entangled linear polymer melts: A molecular-dynamics simulation
# J Chem Phys 92, 5057 (1990)

##################################
# MIHIR: for branched polymers
# LJ minimum first to expand and explore, then collapse
###

###
# Looping through the various N1B5 polymers to simulate,
# define variables to switch through
variable f index bb40nuc1bl20bn5d30tot100V2 bb80nuc1bl40bn5d30tot200V2 bb120nuc1bl60bn5d30tot300V2 bb160nuc1bl80bn5d30tot400V2 bb200nuc1bl100bn5d30tot500V2 bb240nuc1bl120bn5d30tot600V2 bb280nuc1bl140bn5d30tot700V2 bb320nuc1bl160bn5d30tot800V2 bb360nuc1bl180bn5d30tot900V2 bb400nuc1bl200bn5d30tot1000V2 bb440nuc1bl220bn5d30tot1100V2 bb480nuc1bl240bn5d30tot1200V2
# variable f index bb40nuc1bl20bn5d30tot100V3 bb80nuc1bl40bn5d30tot200V3 bb120nuc1bl60bn5d30tot300V3 bb160nuc1bl80bn5d30tot400V3 bb200nuc1bl100bn5d30tot500V3 bb240nuc1bl120bn5d30tot600V3 bb280nuc1bl140bn5d30tot700V3 bb320nuc1bl160bn5d30tot800V3 bb360nuc1bl180bn5d30tot900V3 bb400nuc1bl200bn5d30tot1000V3 bb440nuc1bl220bn5d30tot1100V3 bb480nuc1bl240bn5d30tot1200V3
#variable f index bb40nuc1bl20bn5d30tot100 bb80nuc1bl40bn5d30tot200 bb120nuc1bl60bn5d30tot300 bb160nuc1bl80bn5d30tot400 bb200nuc1bl100bn5d30tot500 bb240nuc1bl120bn5d30tot600 bb280nuc1bl140bn5d30tot700 bb320nuc1bl160bn5d30tot800 bb360nuc1bl180bn5d30tot900 bb400nuc1bl200bn5d30tot1000 bb440nuc1bl220bn5d30tot1100 bb480nuc1bl240bn5d30tot1200
###


###
# Box and units  (use LJ units and periodic boundaries)
###

units lj
log N1B5/trial2/logs2/$f.log
log N1B5/trial2/logs2/bb320nuc1bl160bn5d30tot800V2.log
