#atom_style bond #no stiffness
atom_style angle #with stiffness

boundary        p p p
###
# Pair interactions require lists of neighbours to be calculated
###

#neighbor 0.3 bin
neighbor 4 bin

neigh_modify every 1 delay 1 check yes
atom_modify sort 0 0
### Generate RESTART file, SPECIAL format, not a .txt file ###
### Useful if simulation crashes ###

restart 1000000 N1B5/trial2/restarts2/$f.restart
restart 1000000 N1B5/trial2/restarts2/bb480nuc1bl240bn5d30tot1200V2.restart
#############################



### READ "start" data file ###

read_data N1B5/trial2/dats2/$f.dat
read_data N1B5/trial2/dats2/bb480nuc1bl240bn5d30tot1200V2.dat
Reading data file ...
  orthogonal box = (-1000 -1000 -1000) to (1000 1000 1000)
  1 by 1 by 1 MPI processor grid
  reading atoms ...
  1201 atoms
  scanning bonds ...
  4 = max bonds/atom
  scanning angles ...
  10 = max angles/atom
  reading bonds ...
  1200 bonds
  reading angles ...
  1205 angles
Finding 1-2 1-3 1-4 neighbors ...
  special bond factors lj:    0        0        0       
  special bond factors coul:  0        0        0       
     5 = max # of 1-2 neighbors
     5 = max # of 1-3 neighbors
    10 = max # of 1-4 neighbors
    15 = max # of special neighbors
  special bonds CPU = 0.003 seconds
  read_data CPU = 0.257 seconds

######################

### READ "REstart" data file ###

######################



###
# Define groups (atom type 1 is group 'all')
###
group all type 1
1201 atoms in group all


###
# Dump configs - "simple dumpings"
###

###
# Dump configs + box coords
###

dump   1   all   custom   1000  N1B5/trial2/trjs2/$f.lammpstrj  id  x y z  ix iy iz
dump   1   all   custom   1000  N1B5/trial2/trjs2/bb480nuc1bl240bn5d30tot1200V2.lammpstrj  id  x y z  ix iy iz
dump_modify   1   format line "%d %.5f %.5f %.5f %d %d %d"

########################################################################


###################################################################
# Stiffness term
#
# E = K * (1+cos(theta)), K>0
#
angle_style   cosine
#change this coefficient to change stiffness (e.g. 1,5,10)
angle_coeff   1 1.0
###################################################################

###################################################################
# Pair interaction between non-bonded atoms
#
#  Lennard-Jones 12-6 potential with cutoff:
#  potential E=4epsilon[ (sigma/r)^12 - (sigma/r)^6]  for r<r_cut
#
#  1.12246 = 2^(1/6) is the minimum of the potential


pair_style      lj/cut 1.12246152962189
#pair_style      lj/cut 3

#
#  pair_modify shift yes adds a constant to the potential such

#  that E(r_cut)=0. Forces remains unchanged.
#

pair_modify     shift yes

#
#  pair_coeff for lj/cut, specify 4:
#    * atom type interacting with
#    * atom type
#    * epsilon (energy units)
#    * sigma (distance units)
#

pair_coeff      1 1 1.0 1.0
###################################################################

###################################################################
# Pair interaction between non-bonded atoms
#
#  soft potential, for PUSHING apart overlapping atoms
#  potential E=A*(1 + cos(pi*r/r_c))
#
#  1.12246 = 2^(1/6) is the cut-off r_c

#pair_style     soft 1.12246152962189

#
#  pair_coeff for soft, specify 3:
#    * atom type interacting with
#    * atom type
#    * A
#
#

#pair_coeff      1 1 100.0
###################################################################

###################################################################
# Pair interaction between bonded atoms
#
# Fene potential + Lennard Jones 12-6:

#
#  E= - 0.5 K R0^2 ln[ 1- (r/R0)^2]
#     + 4epsilon[ (sigma/r)^12 - (sigma/r)^6] + epsilon
#

bond_style   fene


#
# For style fene, specify:
#   * bond type
#   * K (energy/distance^2)
#   * R0 (distance)
#   * epsilon (energy)  (LJ component)
#   * sigma (distance)  (LJ component)
#


special_bonds fene #<=== I M P O R T A N T (new command)
Finding 1-2 1-3 1-4 neighbors ...
  special bond factors lj:    0        1        1       
  special bond factors coul:  0        1        1       
     5 = max # of 1-2 neighbors
    15 = max # of special neighbors
  special bonds CPU = 0.002 seconds

bond_coeff   1   30   2   1.0   1.0


###################################################

###################################################################
# Pair interaction between bonded atoms
#
# Harmonic potential:
#
#  E= K * (R-R0)^2
#

#bond_style   harmonic

#
# For style harmonic, specify:
#   * bond type
#   * K (energy/distance^2)
#   * R0 (distance)
#

#bond_coeff   1   60.0   1.0
#bond_coeff   2   harmonic 0.1   1.0

###################################################
compute 1 all gyration
variable rog equal c_1
#compute 2 all coord/atom cutoff 1.1

#dump 2 all custom 10000 contact_number.dump id c_2


###
# Set up fixes
###
thermo_style   custom   step  temp enthalpy c_1
fix 1 all nve   ###NVE ensemble

fix 2 all   langevin   1.0 1.0 1.0  778655   ###Langevin integrator Tstart Tstop 1/friction rndseed


##### Sample thermodynamic info  (temperature, energy, pressure, etc.) #####
thermo 1000









############################################################################

###
# set timestep of integrator

timestep 0.01

###
# run integration for a number of steps
###
#run 0
#variable r equal c_1
#if "$r < 63.1" then "quit 1"

# lj potential minimum, cause molecule to explore
run 100000
Generated 0 of 0 mixed pair_coeff terms from geometric mixing rule
Last active /omp style is angle_style cosine/omp
Neighbor list info ...
  update: every = 1 steps, delay = 1 steps, check = yes
  max neighbors/atom: 2000, page size: 100000
  master list distance cutoff = 5.1224615
  ghost atom cutoff = 5.1224615
  binsize = 2.5612308, bins = 781 781 781
  1 neighbor lists, perpetual/occasional/extra = 1 0 0
  (1) pair lj/cut/omp, perpetual
      attributes: half, newton on, omp
      pair build: half/bin/newton/omp
      stencil: half/bin/3d
      bin: standard
WARNING: Communication cutoff 5.12246152962189 is shorter than a bond length based estimate of 5.455. This may lead to errors. (src/comm.cpp:723)
Per MPI rank memory allocation (min/avg/max) = 1863 | 1863 | 1863 Mbytes
   Step          Temp         Enthalpy         c_1      
         0   0              13.248087      126.64033    
      1000   1.035381       17.829626      126.09418    
      2000   0.96628962     17.441913      125.57882    
      3000   1.024572       18.183275      124.96743    
      4000   1.0098568      18.126403      124.24571    
      5000   1.0296642      18.16443       123.7066     
      6000   1.0436021      18.430772      123.22544    
      7000   1.0110231      18.342355      122.83239    
      8000   0.97947935     18.508096      122.46014    
      9000   1.0056645      18.331921      122.01844    
     10000   0.93330513     18.320277      121.67727    
     11000   0.99751855     18.803616      121.21955    
     12000   0.98688837     18.926398      120.67261    
     13000   1.0003253      18.756717      120.03652    
     14000   0.99199913     19.035331      119.82019    
     15000   1.0003964      18.950406      119.78534    
     16000   0.99713716     18.797074      119.0689     
     17000   0.97700579     19.143402      118.7665     
     18000   1.0048094      19.198479      118.56933    
     19000   0.99014405     19.085556      118.14961    
     20000   1.04871        19.201919      117.60779    
     21000   0.99474109     19.568421      117.4058     
     22000   1.0021519      19.248303      116.89658    
     23000   1.0030719      19.295996      116.60905    
     24000   1.0516431      19.31532       116.28163    
     25000   1.027043       18.919682      115.99994    
     26000   0.96227736     19.107086      115.83141    
     27000   0.97385215     19.568949      115.5316     
     28000   0.98611354     18.68538       115.11706    
     29000   0.97089367     18.811392      115.00525    
     30000   1.0257136      19.392652      114.91323    
     31000   1.0081505      18.9748        114.71748    
     32000   0.99323123     19.512737      114.32971    
     33000   1.0228647      19.578018      113.99613    
     34000   1.0235239      20.066371      113.56731    
     35000   1.0236026      19.740582      113.5313     
     36000   0.96559949     19.40962       113.52176    
     37000   0.99012958     19.043414      113.20433    
     38000   0.96608817     19.506622      112.88805    
     39000   1.0027306      19.354352      112.76224    
     40000   0.95288394     19.420562      112.54465    
     41000   0.99610929     19.592056      112.37558    
     42000   1.0029663      19.537044      112.28034    
     43000   0.99927717     18.987257      112.10721    
     44000   1.0523225      19.740649      111.98793    
     45000   0.99924379     19.724912      111.58461    
     46000   1.0091661      19.602638      111.31513    
     47000   1.030417       19.913692      110.93097    
     48000   1.0389391      19.88781       110.77079    
     49000   0.97471303     19.940077      110.34386    
     50000   0.99679407     19.890924      109.99794    
     51000   1.0534262      20.03948       109.80627    
     52000   1.0269095      20.005566      109.42903    
     53000   1.0402754      19.644035      109.13337    
     54000   1.0017727      19.733032      109.09379    
     55000   0.99828757     19.591683      108.79485    
     56000   0.99963743     19.88315       108.78394    
     57000   0.94913864     19.855951      108.32455    
     58000   0.96790425     19.622764      108.27909    
     59000   0.98289112     19.146315      108.21752    
     60000   0.96667955     20.110485      108.14091    
     61000   0.99415481     19.284765      108.12676    
     62000   1.0023233      20.178697      108.08539    
     63000   1.0164342      19.478611      107.77422    
     64000   1.0241481      19.936984      107.40577    
     65000   1.0238998      20.050469      107.43072    
     66000   1.006566       19.737092      107.20544    
     67000   0.930028       19.488031      106.97678    
     68000   1.007636       19.811181      106.7056     
     69000   1.0189087      19.623599      106.36834    
     70000   1.0518099      20.173646      106.01065    
     71000   0.9724623      19.993721      105.63762    
     72000   0.99527493     19.983751      105.43173    
     73000   1.0369608      20.138909      105.48327    
     74000   1.0470831      19.578344      105.51467    
     75000   1.0319987      20.293067      105.26912    
     76000   0.98192385     20.101572      105.12428    
     77000   1.0288706      19.668071      104.9183     
     78000   1.0019189      19.660429      104.94732    
     79000   0.97150499     19.65543       104.41524    
     80000   1.0023257      20.115066      104.31322    
     81000   0.99800107     19.799835      104.16421    
     82000   0.97256283     19.681964      104.11731    
     83000   0.97438531     19.918112      104.12431    
     84000   0.9745128      19.845135      103.71958    
     85000   1.0096274      20.233525      103.71331    
     86000   0.99258844     20.19485       103.59988    
     87000   0.98257437     19.452936      103.59215    
     88000   1.0308536      20.232363      103.40731    
     89000   0.99413908     20.090163      103.17931    
     90000   0.96235231     20.049755      102.77036    
     91000   0.98410835     19.953488      102.61752    
     92000   1.0192293      20.084379      102.4465     
     93000   0.95158558     19.948108      102.14126    
     94000   1.0489038      19.655532      101.90226    
     95000   1.036013       19.804329      101.6918     
     96000   0.9996338      20.326325      101.56045    
     97000   1.0208103      19.785436      101.30123    
     98000   1.0142793      19.747241      101.05324    
     99000   0.99029252     20.19163       100.76914    
    100000   0.95398717     19.696639      100.49676    
Loop time of 290.224 on 2 procs for 100000 steps with 1201 atoms

Performance: 297700.993 tau/day, 344.561 timesteps/s
104.3% CPU use with 1 MPI tasks x 2 OpenMP threads

MPI task timing breakdown:
Section |  min time  |  avg time  |  max time  |%varavg| %total
---------------------------------------------------------------
Pair    | 1.3217     | 1.3217     | 1.3217     |   0.0 |  0.46
Bond    | 2.7114     | 2.7114     | 2.7114     |   0.0 |  0.93
Neigh   | 279.36     | 279.36     | 279.36     |   0.0 | 96.26
Comm    | 0.035995   | 0.035995   | 0.035995   |   0.0 |  0.01
Output  | 0.37519    | 0.37519    | 0.37519    |   0.0 |  0.13
Modify  | 6.0397     | 6.0397     | 6.0397     |   0.0 |  2.08
Other   |            | 0.3812     |            |       |  0.13

Nlocal:           1201 ave        1201 max        1201 min
Histogram: 1 0 0 0 0 0 0 0 0 0
Nghost:              0 ave           0 max           0 min
Histogram: 1 0 0 0 0 0 0 0 0 0
Neighs:           6925 ave        6925 max        6925 min
Histogram: 1 0 0 0 0 0 0 0 0 0

Total # of neighbors = 6925
Ave neighs/atom = 5.7660283
Ave special neighs/atom = 1.9983347
Neighbor list builds = 1121
Dangerous builds = 0

# Replace lj potential, now collapse
pair_style      lj/cut 3

# Cutoff simul when gyration under 7
# Variable created with equal requires v_ + 'name'
fix 3 all halt 1000 v_rog < 7

run 3000000
Generated 0 of 0 mixed pair_coeff terms from geometric mixing rule
Last active /omp style is angle_style cosine/omp
Per MPI rank memory allocation (min/avg/max) = 1863 | 1863 | 1863 Mbytes
   Step          Temp         Enthalpy         c_1      
    100000   0.95398717     19.110921      100.49676    
    101000   0.97416054     19.544488      100.32143    
    102000   0.96253912     19.388991      99.84204     
    103000   0.96765888     19.476289      99.740923    
    104000   1.0370622      19.846239      99.58072     
    105000   0.97204226     19.532495      99.362761    
    106000   1.0138211      19.467925      99.00109     
    107000   1.0171247      19.665962      98.589718    
    108000   1.0246231      19.70384       98.476965    
    109000   0.99726381     19.051095      98.472432    
    110000   1.0071266      19.861409      98.220646    
    111000   1.0206722      19.754575      97.938742    
    112000   1.0164711      19.550341      97.585024    
    113000   0.98555469     19.240324      97.379025    
    114000   1.0205412      19.804957      97.194481    
    115000   0.98550537     19.355076      96.821508    
    116000   0.96471533     19.065815      96.812065    
    117000   0.95781151     19.540584      96.581869    
    118000   0.98179607     19.060504      96.420196    
    119000   0.995423       19.497591      96.415036    
    120000   0.98796178     19.124527      96.205008    
    121000   0.99420198     19.218923      96.174305    
    122000   1.0181911      19.755771      96.075756    
    123000   1.0509512      19.818873      95.920084    
    124000   1.0187298      19.21712       95.737912    
    125000   1.0210738      19.594146      95.718907    
    126000   0.9722216      19.335594      95.580353    
    127000   1.0307714      19.378756      95.405324    
    128000   1.0207686      19.54206       95.091141    
    129000   0.98692782     19.545054      94.770497    
    130000   0.9666044      19.125276      94.604345    
    131000   0.92165236     19.05834       94.431908    
    132000   0.98619403     19.251297      94.102059    
    133000   0.96438657     19.320051      93.809692    
    134000   0.97784626     19.02681       93.574025    
    135000   1.0009327      18.945275      93.329608    
    136000   1.0097671      19.249774      93.206289    
    137000   0.996937       19.162975      93.038078    
    138000   0.97857546     19.191209      92.926204    
    139000   1.0101822      18.994492      92.831698    
    140000   0.96763251     19.208041      92.834207    
    141000   0.97225652     18.886759      92.51395     
    142000   0.99822559     19.049864      92.431247    
    143000   0.98858647     19.042166      92.315103    
    144000   1.004293       19.083084      92.005969    
    145000   1.0453202      19.400627      91.831698    
    146000   0.99688756     19.234401      91.563512    
    147000   1.007958       19.213783      91.276824    
    148000   1.0212167      19.245466      91.135922    
    149000   1.0228965      19.293679      90.903987    
    150000   1.0087794      19.343739      90.714814    
    151000   1.0217873      18.771352      90.741842    
    152000   1.0171465      19.008499      90.572818    
    153000   1.0030064      19.233258      90.301356    
    154000   1.0213957      19.257431      90.246569    
    155000   0.97436735     18.880842      90.151609    
    156000   1.0020342      19.465972      90.112147    
    157000   1.0136626      19.194531      89.817341    
    158000   0.9833893      19.132227      89.650616    
    159000   0.98108213     19.167149      89.218885    
    160000   1.0044547      18.789963      89.20574     
    161000   0.99675426     19.419671      89.191992    
    162000   0.99860628     19.050181      88.964944    
    163000   1.0112548      19.394159      88.662931    
    164000   0.99867569     18.757915      88.617762    
    165000   0.98047362     18.82858       88.546812    
    166000   0.97248276     18.947214      88.193018    
    167000   1.0072886      19.308526      88.165078    
    168000   0.98812432     19.211954      87.975291    
    169000   1.0420454      19.490966      87.783579    
    170000   1.0170096      19.138183      87.659063    
    171000   0.99129632     18.979623      87.283627    
    172000   0.99221051     19.378245      86.947692    
    173000   1.0087642      18.985648      86.795084    
    174000   1.0151361      19.015816      86.58507     
    175000   1.0246687      19.57478       86.489473    
    176000   1.0453373      19.275228      86.291792    
    177000   1.0188955      19.278442      86.084161    
    178000   1.0123014      19.238299      86.008132    
    179000   1.0193297      19.258011      85.658033    
    180000   1.0082733      19.062761      85.67459     
    181000   0.97578073     19.328088      85.369428    
    182000   0.98656063     19.000149      85.221723    
    183000   1.0282109      19.252591      85.008136    
    184000   1.0160914      19.169627      84.857073    
    185000   1.0205657      18.806391      84.671542    
    186000   0.97552086     18.937742      84.60243     
    187000   1.0004176      19.082574      84.332811    
    188000   0.94120002     19.100686      84.156462    
    189000   0.99038985     18.82079       84.124848    
    190000   1.0188754      18.871145      83.846033    
    191000   0.96299532     18.946271      83.710002    
    192000   1.0180328      19.081039      83.573945    
    193000   1.0157251      18.853035      83.542871    
    194000   1.000553       19.10584       83.147258    
    195000   0.96001124     18.744016      83.047469    
    196000   0.97874233     19.10316       83.031077    
    197000   0.98809885     18.899095      82.875735    
    198000   0.98652133     18.514536      82.710052    
    199000   1.0011971      19.111034      82.614652    
    200000   0.98125556     19.17139       82.684923    
    201000   1.0143926      18.737563      82.53527     
    202000   1.0098138      19.532829      82.376504    
    203000   1.011371       19.798593      82.196889    
    204000   1.0094768      18.976955      82.229805    
    205000   0.97346196     18.822718      82.144129    
    206000   1.0060791      19.127864      81.884064    
    207000   0.95906767     19.531343      81.693655    
    208000   1.0146642      19.069478      81.170285    
    209000   0.98311708     18.78885       81.036064    
    210000   1.0252754      19.285926      81.163781    
    211000   1.043514       19.005924      80.984566    
    212000   1.0066666      19.084649      80.824265    
    213000   1.0104975      18.959022      80.758211    
    214000   0.99300127     18.75068       80.661635    
    215000   0.94563686     18.698857      80.361363    
    216000   0.98058379     19.109338      80.181952    
    217000   0.99573235     18.5899        79.8531      
    218000   1.0122408      18.863495      79.520234    
    219000   0.9979421      18.727958      79.248552    
    220000   0.99903656     18.895842      78.969586    
    221000   0.99992845     18.528249      78.984152    
    222000   1.0050433      18.405069      78.773893    
    223000   0.9900512      19.375711      78.728327    
    224000   0.98542583     18.832808      78.498849    
    225000   0.96658616     18.74472       78.188103    
    226000   0.99299957     18.86955       77.935424    
    227000   1.0111071      18.747302      77.831844    
    228000   1.0193675      19.169055      77.909282    
    229000   0.97099289     18.525816      77.714779    
    230000   0.96232366     19.114948      77.370899    
    231000   1.0049258      18.629916      77.24237     
    232000   0.96403832     18.646792      77.125551    
    233000   1.0180032      19.015667      76.777657    
    234000   1.0359998      18.864941      76.655376    
    235000   0.99936417     19.277305      76.56455     
    236000   0.97470267     18.588782      76.422509    
    237000   0.996534       19.254133      76.32391     
    238000   0.99246273     18.371248      75.961971    
    239000   0.9970793      18.760964      75.863067    
    240000   0.98141485     18.694303      75.767202    
    241000   1.043934       18.775499      75.498703    
    242000   1.0102554      19.20353       75.449393    
    243000   0.98693508     18.59267       75.457193    
    244000   0.96966641     18.228717      75.156853    
    245000   1.0140839      18.58423       75.081745    
    246000   0.94720982     18.761317      74.84362     
    247000   1.0123468      18.831621      74.938487    
    248000   1.0078941      18.761913      74.934768    
    249000   1.0097075      18.851066      74.824263    
    250000   0.98409515     18.874414      74.703485    
    251000   1.0079114      19.020469      74.554774    
    252000   1.0102712      18.645096      74.400696    
    253000   1.0070078      19.287479      74.351945    
    254000   0.99644479     18.985007      74.22417     
    255000   0.99064744     18.997904      74.175475    
    256000   0.9838437      18.571451      73.911934    
    257000   0.98249609     18.123081      73.706868    
    258000   0.99876772     19.290481      73.779106    
    259000   0.99092786     18.915431      73.67205     
    260000   0.97819834     18.739802      73.468448    
    261000   1.05752        18.284875      73.404749    
    262000   0.97457101     18.526833      73.070953    
    263000   1.0050876      18.566505      73.02879     
    264000   1.0226538      18.772668      72.936524    
    265000   0.99117745     18.622197      72.695455    
    266000   0.95393952     18.344363      72.472562    
    267000   0.9805798      18.964109      72.244569    
    268000   0.99473645     19.061035      71.967685    
    269000   1.027236       18.766349      71.730325    
    270000   0.99045447     18.634998      71.675598    
    271000   1.025104       18.99589       71.468092    
    272000   1.034504       18.948532      71.225833    
    273000   1.0129447      19.626268      71.235994    
    274000   0.97325027     18.450149      71.208692    
    275000   0.96499413     17.982924      70.887343    
    276000   0.9747007      18.514068      70.862028    
    277000   0.9655955      18.790015      70.77604     
    278000   0.9914116      18.767327      70.811342    
    279000   0.98175475     18.942491      70.549987    
    280000   0.97647611     18.484311      70.569672    
    281000   0.96880369     18.082947      70.41962     
    282000   1.0316209      18.937977      70.255414    
    283000   1.0325183      18.64596       70.021154    
    284000   0.98546103     18.734252      69.69814     
    285000   0.96746407     18.694501      69.319421    
    286000   0.96478983     18.655571      69.207936    
    287000   1.0230941      19.050294      68.91382     
    288000   0.995896       19.267194      68.779162    
    289000   0.98692677     19.0594        68.523701    
    290000   1.0330116      18.927684      68.450341    
    291000   1.0099792      18.763657      68.2041      
    292000   0.98391834     18.476551      68.074477    
    293000   1.0210913      19.048218      67.817465    
    294000   1.0318416      18.789459      67.530479    
    295000   1.0407753      18.442791      67.399918    
    296000   0.98700479     18.566749      67.306934    
    297000   0.98437556     18.457401      66.977367    
    298000   0.98469713     18.465261      67.015258    
    299000   0.98017137     18.683215      67.051372    
    300000   1.0119845      18.884032      66.908455    
    301000   1.0064348      18.78534       66.743722    
    302000   1.003526       18.315643      66.399381    
    303000   0.95260248     18.44827       66.170795    
    304000   0.99909524     18.268183      65.98502     
    305000   1.0118674      18.472601      65.890248    
    306000   0.98382994     18.575395      65.787672    
    307000   1.0138032      18.620804      65.6781      
    308000   1.0133056      18.574251      65.635939    
    309000   1.0235433      18.415965      65.454598    
    310000   0.9893067      18.883329      65.266778    
    311000   1.0131017      18.376018      65.143565    
    312000   1.0081202      18.391192      65.090534    
    313000   0.96624999     18.607946      64.898337    
    314000   0.9503651      18.236048      64.777451    
    315000   1.0006959      18.422132      64.542058    
    316000   1.030488       18.588119      64.490838    
    317000   0.95274414     18.43145       64.395151    
    318000   1.0519062      18.700816      64.257639    
    319000   0.97829492     18.604953      64.263512    
    320000   1.0073472      18.369404      64.108435    
    321000   1.0033249      18.51617       63.924843    
    322000   0.97358319     18.423363      63.970674    
    323000   1.0686082      19.17117       63.837575    
    324000   0.97102566     18.11291       63.562083    
    325000   0.96470266     18.741772      63.429541    
    326000   1.0247847      18.650003      63.132875    
    327000   1.0251319      18.701818      63.066224    
    328000   0.96917422     18.140264      62.90514     
    329000   0.96635818     18.900827      62.87741     
    330000   1.0103224      17.828983      62.961865    
    331000   1.0046463      18.541512      62.689122    
    332000   0.9893723      18.138082      62.377314    
    333000   0.99247074     18.536259      62.14519     
    334000   0.99623401     18.189129      61.884772    
    335000   1.0115552      18.483225      61.777033    
    336000   1.0254909      18.568312      61.477266    
    337000   0.96872487     18.256554      61.334574    
    338000   0.99070272     18.294016      61.330205    
    339000   0.99251223     18.462171      61.039946    
    340000   0.97634091     18.119315      60.831991    
    341000   1.0160813      18.768174      60.891217    
    342000   1.0182593      19.067663      60.750584    
    343000   0.9531148      17.899684      60.469638    
    344000   1.02634        18.750799      60.103285    
    345000   1.0186096      18.956917      59.853008    
    346000   1.0023035      19.137603      59.735079    
    347000   1.0113191      18.146874      59.784315    
    348000   0.99824359     18.49325       59.624124    
    349000   0.96610871     18.236449      59.404992    
    350000   1.0033932      18.189925      59.165251    
    351000   0.98948592     18.471136      59.141702    
    352000   1.0083889      18.496651      58.956149    
    353000   0.97950421     18.384177      58.8958      
    354000   0.97889435     18.520829      58.629343    
    355000   1.0139049      18.395616      58.469953    
    356000   0.96840773     18.812539      58.4265      
    357000   0.96519133     17.96172       58.151504    
    358000   1.0125596      18.649568      58.065089    
    359000   1.0063767      18.832474      57.957444    
    360000   1.029845       18.635415      57.616517    
    361000   1.008733       18.387056      57.621061    
    362000   1.0111808      18.860602      57.299839    
    363000   1.0121656      18.369545      57.033604    
    364000   1.0140946      18.567927      56.714687    
    365000   0.99629425     17.817088      56.411257    
    366000   1.0147886      18.091103      56.235752    
    367000   0.97381011     18.282229      55.944079    
    368000   0.97759361     18.048881      55.725607    
    369000   1.0099548      18.42059       55.460343    
    370000   1.0027868      18.847676      55.265057    
    371000   1.0160188      18.406157      55.159699    
    372000   0.97623519     17.880407      55.039933    
    373000   1.0241846      18.329537      55.084539    
    374000   0.97869333     18.554682      54.917943    
    375000   0.98495777     18.33309       54.976289    
    376000   1.0350508      18.499367      54.914961    
    377000   1.0231536      18.408176      54.765927    
    378000   1.0418651      18.817808      54.579846    
    379000   0.96813332     17.920528      54.482838    
    380000   0.98988808     18.408189      54.427966    
    381000   1.0139697      17.908674      54.220104    
    382000   0.98106285     18.416066      53.959977    
    383000   0.97840753     18.652457      53.658386    
    384000   1.01055        18.392729      53.350244    
    385000   1.0362755      18.129656      53.405966    
    386000   1.0438218      18.433931      53.151763    
    387000   1.0299909      18.591654      53.109831    
    388000   0.99975139     17.952849      53.236106    
    389000   0.95839216     18.313902      53.065462    
    390000   1.0383074      18.643559      52.809707    
    391000   0.99210948     18.230268      52.734659    
    392000   1.0532664      18.881636      52.501286    
    393000   1.0008094      18.516957      52.167554    
    394000   0.95209502     18.196511      51.897304    
    395000   0.98886993     17.874655      51.556179    
    396000   1.0406612      18.789007      51.713891    
    397000   1.02631        18.564348      51.612538    
    398000   0.96806253     17.937805      51.657731    
    399000   0.96578616     18.213157      51.51676     
    400000   0.95897471     18.167104      51.259718    
    401000   0.9647663      17.986081      51.147548    
    402000   1.0397503      18.231883      50.956413    
    403000   1.0125078      18.24264       50.82892     
    404000   1.026655       18.420291      50.732598    
    405000   0.94990474     17.845857      50.584149    
    406000   1.0262858      18.287465      50.3522      
    407000   1.0305704      18.529781      50.089118    
    408000   0.98865171     18.220455      49.779481    
    409000   1.0202858      17.83964       49.650531    
    410000   1.0198777      18.360546      49.434051    
    411000   0.98191426     18.547039      49.23494     
    412000   0.98328723     17.933042      48.999416    
    413000   1.0020544      17.954176      48.955822    
    414000   0.99215889     18.635387      48.707954    
    415000   0.97421718     18.118654      48.724744    
    416000   1.0123574      18.040967      48.612981    
    417000   0.98551613     18.80764       48.60162     
    418000   0.97861633     18.5851        48.435124    
    419000   0.99147074     18.385515      48.331436    
    420000   0.95539411     18.217037      48.302204    
    421000   1.0158468      18.341268      48.288915    
    422000   0.97626346     17.970985      47.877068    
    423000   1.0250513      18.807984      47.913943    
    424000   0.97579192     18.211459      47.658666    
    425000   1.0290774      18.438595      47.36141     
    426000   1.0207567      18.276152      46.886627    
    427000   0.99608067     18.512814      46.727874    
    428000   0.98728233     18.075458      46.635929    
    429000   0.98822436     17.758938      46.460365    
    430000   1.0214461      17.916949      46.242283    
    431000   0.93911319     18.285425      46.202409    
    432000   0.97450825     18.481362      45.901646    
    433000   0.98138717     18.225279      45.855807    
    434000   0.99632952     18.484961      45.478637    
    435000   0.97407974     18.017694      45.667058    
    436000   1.0319685      17.425994      45.588941    
    437000   1.0217504      18.617764      45.429783    
    438000   1.0318626      18.497442      45.364635    
    439000   0.99211606     18.350752      45.337707    
    440000   0.99800691     17.734232      45.139829    
    441000   0.9844461      18.14814       45.013889    
    442000   1.0268353      18.525822      44.938959    
    443000   1.024673       18.23451       44.938684    
    444000   0.98896598     18.456168      44.695976    
    445000   1.0170175      17.80821       44.632063    
    446000   1.0033008      17.908712      44.41097     
    447000   0.98749202     17.895138      44.267938    
    448000   1.0035247      17.704529      43.772202    
    449000   0.99420016     18.348758      43.455613    
    450000   0.97748584     18.247467      43.349612    
    451000   0.99711679     17.806826      43.338453    
    452000   0.96885751     18.391528      43.082404    
    453000   1.0033464      17.697934      42.761087    
    454000   0.99442284     17.766447      42.740823    
    455000   1.0743827      18.418542      42.567123    
    456000   0.98423658     18.530415      42.372031    
    457000   0.98624491     18.158269      42.496643    
    458000   0.97292593     18.253037      42.480218    
    459000   1.0050326      17.660915      42.453322    
    460000   0.98524028     18.028071      42.25965     
    461000   0.9950504      17.896427      42.165773    
    462000   0.98768428     17.906326      41.904159    
    463000   0.99200505     17.951463      41.777993    
    464000   0.95582106     18.178594      41.628504    
    465000   0.98530412     18.270459      41.063452    
    466000   0.97138019     17.785892      41.055525    
    467000   1.0461403      18.122513      41.034823    
    468000   1.0292439      18.195233      40.572882    
    469000   0.99287693     17.473112      40.457432    
    470000   0.97770411     18.183076      40.396458    
    471000   0.99641121     17.598564      40.212632    
    472000   1.0107959      18.278416      40.060795    
    473000   0.9646085      18.102583      39.949876    
    474000   1.0210248      18.189708      39.52273     
    475000   1.0032411      18.167903      39.452738    
    476000   0.92690915     18.233057      39.390556    
    477000   1.0408654      18.014959      39.068784    
    478000   1.0106347      17.86414       39.024643    
    479000   1.014709       18.415592      38.683754    
    480000   0.96701296     18.160156      38.327252    
    481000   0.98470979     17.975578      38.076419    
    482000   0.9753484      17.956866      37.963452    
    483000   1.0448077      18.510329      37.934044    
    484000   0.98944114     18.055561      38.038249    
    485000   0.99155791     18.308444      38.018998    
    486000   1.0190547      18.176021      38.056874    
    487000   0.9747042      17.929921      38.005672    
    488000   1.0233897      18.003025      38.146829    
    489000   0.98216052     17.849961      38.084894    
    490000   0.9809009      18.359173      37.882898    
    491000   1.035605       18.245254      37.822676    
    492000   0.96348792     18.436989      37.876452    
    493000   1.0393194      18.084185      37.90313     
    494000   1.044459       18.184042      37.847898    
    495000   1.0116667      18.003003      37.789247    
    496000   0.99984178     17.657737      37.757385    
    497000   1.0091682      18.245768      37.635403    
    498000   0.97625001     17.759831      37.502513    
    499000   0.98674947     17.747709      37.343179    
    500000   1.0239115      17.732964      37.338115    
    501000   0.9740031      18.250966      36.945271    
    502000   0.98976486     17.509962      36.76959     
    503000   1.0068778      17.943499      36.803559    
    504000   1.0048051      17.896265      36.483052    
    505000   1.0144818      17.824509      36.208295    
    506000   1.0338516      18.062471      36.013563    
    507000   1.0206555      17.950329      36.0731      
    508000   0.99748404     18.122371      35.906263    
    509000   0.99639652     18.080773      35.742248    
    510000   0.97662064     17.976679      35.407539    
    511000   1.0448371      17.70584       35.259649    
    512000   0.99817416     17.692724      35.006177    
    513000   1.0092371      17.485369      35.029364    
    514000   1.0028474      17.890736      34.828667    
    515000   1.0329254      18.039112      34.698519    
    516000   1.0167495      17.609465      34.691221    
    517000   1.0266875      18.499924      34.627585    
    518000   0.98575602     17.48426       34.537442    
    519000   1.0254571      17.824425      34.210791    
    520000   1.053434       18.15472       34.054977    
    521000   0.9923531      18.245267      34.062033    
    522000   0.9733938      18.162349      34.176319    
    523000   0.98912952     17.994542      34.130859    
    524000   1.0273775      18.287881      34.013451    
    525000   0.96980009     18.000392      33.865301    
    526000   1.0028733      17.891862      33.822509    
    527000   1.0453881      18.128157      33.499964    
    528000   1.0313572      18.25519       33.389015    
    529000   0.98646514     17.958371      33.437464    
    530000   0.98365202     17.524901      33.048366    
    531000   0.99234648     18.013847      32.911757    
    532000   1.0495994      17.98522       32.861239    
    533000   1.0159375      18.510366      32.783267    
    534000   1.003144       17.698831      32.751481    
    535000   1.0124252      17.750642      32.614348    
    536000   1.0441976      17.971424      32.346038    
    537000   0.97698839     18.104928      32.421831    
    538000   0.99381242     18.048204      32.372086    
    539000   1.0244952      17.644036      32.513939    
    540000   0.9817641      17.79958       32.367422    
    541000   1.0274427      17.814575      32.154121    
    542000   0.98643744     18.038135      32.174261    
    543000   0.99233192     18.028541      32.244454    
    544000   1.0138001      18.140026      32.263317    
    545000   1.0095417      18.248621      32.306933    
    546000   1.0051352      17.884173      32.485115    
    547000   0.99425454     18.341939      32.327966    
    548000   0.99652525     17.513887      32.220338    
    549000   1.0337676      17.584603      31.981608    
    550000   0.98903164     17.917135      31.913051    
    551000   1.0213562      17.867508      31.761842    
    552000   0.97693057     17.534459      31.58807     
    553000   0.99263411     17.612633      31.507411    
    554000   0.98349467     17.472847      31.411966    
    555000   1.0085091      17.988933      31.523499    
    556000   0.98271303     18.063002      31.700844    
    557000   0.99969676     18.155354      31.680916    
    558000   0.99800827     17.60398       31.678425    
    559000   0.98884343     17.690181      31.645567    
    560000   0.99193086     17.73746       31.362488    
    561000   1.0034611      17.940944      31.358192    
    562000   0.97936725     17.490724      31.180277    
    563000   0.98891417     17.801222      30.91181     
    564000   1.0287855      17.698709      30.923198    
    565000   0.95404211     17.77492       30.703552    
    566000   0.97698538     18.055283      30.445767    
    567000   0.98322569     17.559778      30.27088     
    568000   0.99578553     17.713976      30.036718    
    569000   1.0002995      17.897812      29.799785    
    570000   0.99525044     18.628175      29.823136    
    571000   1.0294191      18.144143      29.744654    
    572000   0.97362675     17.844977      29.632418    
    573000   1.0208262      17.502307      29.481177    
    574000   1.0069659      18.228591      29.354484    
    575000   1.0075557      17.938242      29.220446    
    576000   0.99073139     17.990603      28.974456    
    577000   0.98300054     17.497269      28.907729    
    578000   1.0436368      18.147385      28.716065    
    579000   0.9872565      18.137442      28.578159    
    580000   0.98435603     17.596158      28.387091    
    581000   0.99183169     17.406264      28.333234    
    582000   1.008851       17.856551      28.125762    
    583000   0.99315813     17.902494      28.065007    
    584000   1.0240146      17.90173       28.026217    
    585000   1.0612027      18.423681      27.956873    
    586000   1.0019581      17.884506      27.525326    
    587000   1.0126888      17.384464      27.459241    
    588000   0.97602312     18.123668      27.379502    
    589000   0.99452855     17.537242      27.220065    
    590000   1.0398399      17.733503      27.098482    
    591000   1.0473468      18.391071      27.088196    
    592000   1.0484747      18.011538      26.900027    
    593000   0.96959773     18.050141      26.740596    
    594000   1.02874        18.382769      26.510362    
    595000   1.0229746      17.882505      26.43744     
    596000   1.0376563      17.798428      26.18456     
    597000   0.98846897     16.939377      25.86902     
    598000   0.99829089     17.651358      25.763677    
    599000   1.0142223      17.828843      25.678054    
    600000   0.95491081     17.398956      25.55492     
    601000   0.9956342      18.293952      25.743684    
    602000   0.97795864     18.196912      25.799678    
    603000   0.95052905     17.302487      25.605884    
    604000   1.0271461      18.148336      25.399746    
    605000   0.98754261     17.846897      25.118903    
    606000   1.012915       17.564778      24.930621    
    607000   1.0425424      17.581864      24.910991    
    608000   1.0059988      17.903774      24.686404    
    609000   1.0107121      17.70373       24.601905    
    610000   1.0010651      17.741064      24.366985    
    611000   0.9666128      17.697027      24.257797    
    612000   1.0197646      17.789394      24.163449    
    613000   1.0145666      17.300484      24.062207    
    614000   0.96670866     17.619899      23.929782    
    615000   1.0008122      18.160767      23.748948    
    616000   0.99546847     17.698042      23.502841    
    617000   0.99935013     17.958837      23.415524    
    618000   0.99254977     17.306766      23.379187    
    619000   0.98457865     17.817284      23.085078    
    620000   0.99694006     17.925717      22.877445    
    621000   0.98913748     17.967471      22.798592    
    622000   1.0125022      18.036598      22.750233    
    623000   0.99985398     17.488891      22.579323    
    624000   1.0124171      18.026435      22.361393    
    625000   0.97229334     17.427047      22.118128    
    626000   0.98845539     17.666109      22.115652    
    627000   1.0187368      17.682841      22.087464    
    628000   1.0240139      17.572752      22.107079    
    629000   1.0198749      17.886132      22.097969    
    630000   0.95666831     17.736819      21.923408    
    631000   1.0023156      17.481266      21.882259    
    632000   0.97871215     17.783964      21.588135    
    633000   1.0190506      17.799996      21.503193    
    634000   0.97078217     17.479496      21.460754    
    635000   0.99026442     17.662024      21.321309    
    636000   1.0061376      17.544246      21.382857    
    637000   0.99635457     17.965678      21.350502    
    638000   0.98624471     18.017589      21.191264    
    639000   1.0062366      17.964713      21.155126    
    640000   0.99908715     17.360321      20.882692    
    641000   1.0053045      18.032408      20.916479    
    642000   0.97520307     17.905928      20.775507    
    643000   0.97938784     17.490298      20.483062    
    644000   0.98965361     17.518957      20.461783    
    645000   1.0151691      17.168815      20.211178    
    646000   1.0080537      17.464698      20.110733    
    647000   0.99246296     17.738999      20.138541    
    648000   0.9909014      17.498574      20.101592    
    649000   1.0002347      17.763734      20.020326    
    650000   0.9963567      17.574907      20.077327    
    651000   1.0177395      17.732619      19.883463    
    652000   1.0044556      16.930558      19.848527    
    653000   1.0356964      17.954189      19.48862     
    654000   1.0008775      17.383008      19.228073    
    655000   0.94018528     16.875908      19.28241     
    656000   1.0385749      17.783025      19.286091    
    657000   0.99457799     17.794657      19.193452    
    658000   0.98180558     17.665707      19.069719    
    659000   1.0174044      17.761691      18.865212    
    660000   0.96560721     17.567315      18.871779    
    661000   1.0358376      17.582502      18.777325    
    662000   0.99896939     17.684593      18.620306    
    663000   1.0130492      17.690075      18.637602    
    664000   1.0145412      18.008294      18.627601    
    665000   0.99902973     17.748158      18.554085    
    666000   1.015542       17.804243      18.415679    
    667000   1.0207833      17.575211      18.341791    
    668000   1.0086457      17.270425      18.2126      
    669000   1.0190494      17.171124      17.842658    
    670000   0.98683484     17.716806      17.594674    
    671000   1.0036516      17.526467      17.545101    
    672000   0.99203863     17.394128      17.554583    
    673000   1.0396186      17.876432      17.363166    
    674000   1.0240429      17.400862      17.143531    
    675000   0.9845517      17.533234      17.03481     
    676000   0.99604067     17.886942      16.719016    
    677000   1.0143194      17.218929      16.481968    
    678000   0.98338459     16.885229      16.323598    
    679000   1.0596825      17.852101      16.316696    
    680000   0.98921753     17.165025      16.013917    
    681000   1.0450768      18.275051      15.806471    
    682000   1.0173477      17.3218        15.609616    
    683000   1.0048443      16.993319      15.295826    
    684000   0.97212099     17.54739       14.963554    
    685000   1.0044668      17.98815       14.736697    
    686000   0.99577913     17.547368      14.540935    
    687000   0.97346599     17.646908      14.238119    
    688000   1.0098093      17.286449      14.261908    
    689000   1.0291099      17.417024      14.274568    
    690000   0.96309537     17.185761      14.205764    
    691000   0.99344028     17.824515      14.015133    
    692000   1.0215141      17.883617      14.138244    
    693000   0.96518787     17.62905       13.891917    
    694000   1.0008906      17.801223      13.950868    
    695000   0.97912221     17.549927      14.074796    
    696000   1.0035063      17.506473      13.973041    
    697000   0.96647932     17.23925       13.863782    
    698000   0.9620837      17.299234      13.605216    
    699000   0.99902904     17.689926      13.313115    
    700000   1.0186845      17.389335      13.342371    
    701000   0.98680012     17.542135      13.074892    
    702000   0.99521658     17.804707      13.126039    
    703000   1.0278945      17.567342      13.009748    
    704000   0.99660336     17.267519      12.784103    
    705000   0.99580186     17.538712      12.693225    
    706000   1.0317876      17.230606      12.524212    
    707000   1.0034434      17.411171      12.472711    
    708000   1.0169177      16.717953      12.210456    
    709000   1.0032746      17.683299      12.011913    
    710000   0.99712665     17.291065      11.880778    
    711000   1.0116437      17.0942        11.837584    
    712000   1.0201351      17.534094      11.81363     
    713000   0.99469576     17.950364      11.825083    
    714000   0.98480911     17.180567      11.710334    
    715000   0.98307728     17.392246      11.663613    
    716000   1.0090169      17.473952      11.718092    
    717000   1.0095417      17.262626      11.707965    
    718000   1.0050153      17.020951      11.662444    
    719000   1.0289939      17.405304      11.526404    
    720000   0.99295021     16.770161      11.56156     
    721000   0.98962989     17.390247      11.475789    
    722000   0.94330245     16.723781      11.334492    
    723000   1.012882       17.279557      11.323147    
    724000   0.9958688      17.168996      11.106897    
    725000   1.041779       16.586222      10.942035    
    726000   0.97583307     16.712596      10.824413    
    727000   0.96487265     17.634675      10.767676    
    728000   1.0289081      17.344838      10.733494    
    729000   0.97210484     17.923658      10.737404    
    730000   1.0282851      17.427288      10.80887     
    731000   1.0084654      17.626714      10.636693    
    732000   0.94545666     17.317527      10.675372    
    733000   1.0045041      16.953276      10.801082    
    734000   0.99965414     17.284425      10.559584    
    735000   1.045867       16.858626      10.358631    
    736000   1.0265694      17.020406      10.211464    
    737000   1.0084491      16.751653      10.216926    
    738000   1.0379683      16.864054      10.120384    
    739000   1.0221863      16.980368      10.062593    
    740000   0.98221753     16.851999      10.093501    
    741000   0.98264917     16.868626      9.979908     
    742000   1.0342988      17.159122      10.055006    
    743000   1.035594       17.158488      10.006184    
    744000   1.0056411      17.003394      9.8866577    
    745000   1.0195584      17.310113      9.7306983    
    746000   0.98030199     16.642209      9.4409891    
    747000   0.99922857     16.574209      9.0776144    
    748000   0.9685717      16.945096      8.9081421    
    749000   1.0140731      16.665989      8.7655011    
    750000   0.96161523     17.118944      8.5202509    
    751000   1.0014345      17.718087      8.5686417    
    752000   1.0108569      17.327749      8.4214937    
    753000   0.99476981     17.352115      8.3393429    
    754000   1.0047798      17.213465      8.181367     
    755000   1.0287251      17.45373       8.1339545    
    756000   0.99879514     17.485571      8.0290595    
    757000   0.98086444     16.458513      7.8009896    
    758000   1.0181118      17.609366      8.0885937    
    759000   1.0007089      17.172501      8.212664     
    760000   0.97437171     17.146149      8.2801215    
    761000   0.98581723     16.971558      8.1681628    
    762000   1.0057053      16.843698      8.1938359    
    763000   1.0481952      16.724191      8.2294374    
    764000   1.0013834      16.670378      8.2005523    
    765000   1.0261336      16.965094      8.2702776    
    766000   1.0072323      17.054098      8.1955607    
    767000   0.99863489     16.544522      8.1331012    
    768000   0.99139795     17.409157      8.0622027    
    769000   1.0104955      16.849639      7.9833841    
    770000   0.98789186     17.202363      7.8917378    
    771000   1.051696       16.684163      7.8823644    
    772000   0.97528822     16.479941      7.8141704    
    773000   1.0210297      16.882887      7.6253914    
    774000   1.0274783      17.211842      7.7704416    
    775000   0.93764863     17.159762      7.7807028    
    776000   1.0287265      17.479333      7.609333     
    777000   1.0323545      16.664312      7.623443     
    778000   1.0303995      17.216236      7.573394     
    779000   0.99872732     17.157996      7.3732882    
    780000   0.99770176     17.235285      7.3133744    
    781000   1.0265049      16.677516      7.2341583    
    782000   0.99671591     16.658556      7.045558     
    783000   1.0461602      17.526772      7.054205     
    784000   1.0525455      17.175853      7.012494     
Fix halt condition for fix-id 3 met on step 785000 with value 6.9875864684194795 (src/fix_halt.cpp:237)
    785000   0.99898451     16.708069      6.9875865    
Loop time of 998.932 on 2 procs for 685000 steps with 1201 atoms

Performance: 592473.034 tau/day, 685.733 timesteps/s
127.7% CPU use with 1 MPI tasks x 2 OpenMP threads

MPI task timing breakdown:
Section |  min time  |  avg time  |  max time  |%varavg| %total
---------------------------------------------------------------
Pair    | 197.72     | 197.72     | 197.72     |   0.0 | 19.79
Bond    | 19.577     | 19.577     | 19.577     |   0.0 |  1.96
Neigh   | 732.66     | 732.66     | 732.66     |   0.0 | 73.34
Comm    | 0.28609    | 0.28609    | 0.28609    |   0.0 |  0.03
Output  | 2.6387     | 2.6387     | 2.6387     |   0.0 |  0.26
Modify  | 43.129     | 43.129     | 43.129     |   0.0 |  4.32
Other   |            | 2.92       |            |       |  0.29

Nlocal:           1201 ave        1201 max        1201 min
Histogram: 1 0 0 0 0 0 0 0 0 0
Nghost:              0 ave           0 max           0 min
Histogram: 1 0 0 0 0 0 0 0 0 0
Neighs:         288915 ave      288915 max      288915 min
Histogram: 1 0 0 0 0 0 0 0 0 0

Total # of neighbors = 288915
Ave neighs/atom = 240.56203
Ave special neighs/atom = 1.9983347
Neighbor list builds = 6762
Dangerous builds = 0

# This simulation is done
# Move onto the next one
clear
  using 2 OpenMP thread(s) per MPI task
package omp 0
using multi-threaded neighbor list subroutines
next f
jump SELF

Total wall time: 2:09:39
