#atom_style bond #no stiffness
atom_style angle #with stiffness

boundary        p p p
###
# Pair interactions require lists of neighbours to be calculated
###

#neighbor 0.3 bin
neighbor 4 bin

neigh_modify every 1 delay 1 check yes
atom_modify sort 0 0
### Generate RESTART file, SPECIAL format, not a .txt file ###
### Useful if simulation crashes ###

restart 1000000 N5B4/trial2/restarts3/$f.restart
restart 1000000 N5B4/trial2/restarts3/bb337nuc5bl56bn4d30tot900V2.restart
#############################



### READ "start" data file ###

read_data N5B4/trial2/dats2/$f.dat
read_data N5B4/trial2/dats2/bb337nuc5bl56bn4d30tot900V2.dat
Reading data file ...
  orthogonal box = (-1000 -1000 -1000) to (1000 1000 1000)
  1 by 1 by 1 MPI processor grid
  reading atoms ...
  897 atoms
  scanning bonds ...
  3 = max bonds/atom
  scanning angles ...
  6 = max angles/atom
  reading bonds ...
  896 bonds
  reading angles ...
  910 angles
Finding 1-2 1-3 1-4 neighbors ...
  special bond factors lj:    0        0        0       
  special bond factors coul:  0        0        0       
     4 = max # of 1-2 neighbors
     4 = max # of 1-3 neighbors
     8 = max # of 1-4 neighbors
    12 = max # of special neighbors
  special bonds CPU = 0.003 seconds
  read_data CPU = 0.216 seconds

######################

### READ "REstart" data file ###

######################



###
# Define groups (atom type 1 is group 'all')
###
group all type 1
897 atoms in group all


###
# Dump configs - "simple dumpings"
###

###
# Dump configs + box coords
###

dump   1   all   custom   1000  N5B4/trial2/trjs3/$f.lammpstrj  id  x y z  ix iy iz
dump   1   all   custom   1000  N5B4/trial2/trjs3/bb337nuc5bl56bn4d30tot900V2.lammpstrj  id  x y z  ix iy iz
dump_modify   1   format line "%d %.5f %.5f %.5f %d %d %d"

########################################################################


###################################################################
# Stiffness term
#
# E = K * (1+cos(theta)), K>0
#
angle_style   cosine
#change this coefficient to change stiffness (e.g. 1,5,10)
angle_coeff   1 1.0
###################################################################

###################################################################
# Pair interaction between non-bonded atoms
#
#  Lennard-Jones 12-6 potential with cutoff:
#  potential E=4epsilon[ (sigma/r)^12 - (sigma/r)^6]  for r<r_cut
#
#  1.12246 = 2^(1/6) is the minimum of the potential


pair_style      lj/cut 1.12246152962189
#pair_style      lj/cut 3

#
#  pair_modify shift yes adds a constant to the potential such

#  that E(r_cut)=0. Forces remains unchanged.
#

pair_modify     shift yes

#
#  pair_coeff for lj/cut, specify 4:
#    * atom type interacting with
#    * atom type
#    * epsilon (energy units)
#    * sigma (distance units)
#

pair_coeff      1 1 1.0 1.0
###################################################################

###################################################################
# Pair interaction between non-bonded atoms
#
#  soft potential, for PUSHING apart overlapping atoms
#  potential E=A*(1 + cos(pi*r/r_c))
#
#  1.12246 = 2^(1/6) is the cut-off r_c

#pair_style     soft 1.12246152962189

#
#  pair_coeff for soft, specify 3:
#    * atom type interacting with
#    * atom type
#    * A
#
#

#pair_coeff      1 1 100.0
###################################################################

###################################################################
# Pair interaction between bonded atoms
#
# Fene potential + Lennard Jones 12-6:

#
#  E= - 0.5 K R0^2 ln[ 1- (r/R0)^2]
#     + 4epsilon[ (sigma/r)^12 - (sigma/r)^6] + epsilon
#

bond_style   fene


#
# For style fene, specify:
#   * bond type
#   * K (energy/distance^2)
#   * R0 (distance)
#   * epsilon (energy)  (LJ component)
#   * sigma (distance)  (LJ component)
#


special_bonds fene #<=== I M P O R T A N T (new command)
Finding 1-2 1-3 1-4 neighbors ...
  special bond factors lj:    0        1        1       
  special bond factors coul:  0        1        1       
     4 = max # of 1-2 neighbors
    12 = max # of special neighbors
  special bonds CPU = 0.002 seconds

bond_coeff   1   30   2   1.0   1.0


###################################################

###################################################################
# Pair interaction between bonded atoms
#
# Harmonic potential:
#
#  E= K * (R-R0)^2
#

#bond_style   harmonic

#
# For style harmonic, specify:
#   * bond type
#   * K (energy/distance^2)
#   * R0 (distance)
#

#bond_coeff   1   60.0   1.0
#bond_coeff   2   harmonic 0.1   1.0

###################################################
compute 1 all gyration
variable rog equal c_1
#compute 2 all coord/atom cutoff 1.1

#dump 2 all custom 10000 contact_number.dump id c_2


###
# Set up fixes
###
thermo_style   custom   step  temp enthalpy c_1
fix 1 all nve   ###NVE ensemble

fix 2 all   langevin   1.0 1.0 1.0  778655   ###Langevin integrator Tstart Tstop 1/friction rndseed


##### Sample thermodynamic info  (temperature, energy, pressure, etc.) #####
thermo 1000









############################################################################

###
# set timestep of integrator

timestep 0.01

###
# run integration for a number of steps
###
#run 0
#variable r equal c_1
#if "$r < 63.1" then "quit 1"

# lj potential minimum, cause molecule to explore
run 100000
Generated 0 of 0 mixed pair_coeff terms from geometric mixing rule
Last active /omp style is angle_style cosine/omp
Neighbor list info ...
  update: every = 1 steps, delay = 1 steps, check = yes
  max neighbors/atom: 2000, page size: 100000
  master list distance cutoff = 5.1224615
  ghost atom cutoff = 5.1224615
  binsize = 2.5612308, bins = 781 781 781
  1 neighbor lists, perpetual/occasional/extra = 1 0 0
  (1) pair lj/cut/omp, perpetual
      attributes: half, newton on, omp
      pair build: half/bin/newton/omp
      stencil: half/bin/3d
      bin: standard
WARNING: Communication cutoff 5.12246152962189 is shorter than a bond length based estimate of 5.455. This may lead to errors. (src/comm.cpp:723)
Per MPI rank memory allocation (min/avg/max) = 1862 | 1862 | 1862 Mbytes
   Step          Temp         Enthalpy         c_1      
         0   0              13.251962      61.582837    
      1000   0.99739195     18.38615       60.58059     
      2000   0.97796724     19.435568      59.934797    
      3000   0.97694105     19.088781      59.283298    
      4000   0.99269051     18.896439      59.070975    
      5000   1.0017064      18.960789      58.479209    
      6000   0.94474191     19.198691      57.958555    
      7000   1.0584728      19.644365      57.541291    
      8000   1.0137187      19.816356      57.295841    
      9000   0.95976143     20.047202      56.968505    
     10000   0.99493044     19.995593      56.802389    
     11000   0.98488077     20.100257      56.744193    
     12000   1.0444874      20.496487      56.608485    
     13000   1.0190684      20.287235      56.385899    
     14000   0.98630379     19.953089      56.303997    
     15000   1.0243788      20.680758      56.151269    
     16000   0.96439489     20.038574      56.013354    
     17000   0.99303672     20.280669      55.870685    
     18000   0.99262946     20.68848       55.466946    
     19000   1.0569737      20.469907      55.430441    
     20000   1.0256728      19.722446      55.230629    
     21000   1.0047348      19.884329      55.09248     
     22000   1.0204137      20.50661       54.650103    
     23000   0.97487316     20.19518       54.296774    
     24000   0.99083833     20.506508      54.183579    
     25000   1.009606       19.941254      53.987173    
     26000   0.97212192     20.12976       53.622892    
     27000   0.99933345     19.677706      53.508731    
     28000   1.0474492      20.84974       53.163176    
     29000   1.0080163      20.348806      53.185626    
     30000   1.0121997      19.997297      52.993824    
     31000   0.99825279     20.381586      52.795884    
     32000   1.0041025      20.492587      52.637688    
     33000   1.0531083      20.762711      52.089204    
     34000   1.0334776      20.632559      51.806284    
     35000   1.0228825      20.392333      51.799542    
     36000   0.9840688      19.964475      51.453879    
     37000   1.0130514      19.85697       51.305992    
     38000   0.99584143     20.319878      51.066954    
     39000   0.99529269     20.996321      51.089579    
     40000   1.0112846      20.578738      50.762186    
     41000   1.0111234      20.234598      50.594896    
     42000   1.0106247      20.854488      50.653301    
     43000   0.98209552     20.634441      50.676178    
     44000   0.98277122     20.559906      50.437712    
     45000   0.94180327     20.501185      50.402811    
     46000   0.94727679     20.34071       50.105375    
     47000   0.95572551     19.782198      50.156348    
     48000   1.0168619      20.314341      50.169995    
     49000   0.95615051     20.264116      50.270607    
     50000   1.0271855      20.299657      50.097159    
     51000   1.0659565      20.646348      50.027305    
     52000   1.0145977      20.281648      49.939149    
     53000   1.0199662      20.193754      49.657278    
     54000   1.0050554      20.153436      49.450896    
     55000   0.99912776     20.483135      49.219588    
     56000   0.97669041     20.479503      49.090968    
     57000   1.0598732      20.790733      48.990267    
     58000   0.97888581     19.938142      48.774027    
     59000   0.99997267     20.945231      48.276851    
     60000   0.98772644     20.641018      48.159742    
     61000   1.0129702      20.320949      48.299495    
     62000   1.016749       20.011451      48.18332     
     63000   1.0081801      20.490704      47.968171    
     64000   1.0067444      20.441715      48.01637     
     65000   1.0210419      20.19492       47.944261    
     66000   1.0265514      20.21266       47.818217    
     67000   1.0373712      20.282814      47.669317    
     68000   0.98923924     20.137303      47.54517     
     69000   0.97974269     20.488558      47.465541    
     70000   0.94615807     20.525702      47.422736    
     71000   0.97994657     19.990863      47.450175    
     72000   0.98584388     19.910844      47.322107    
     73000   0.96292436     20.476869      47.56436     
     74000   0.93085152     20.348383      47.472427    
     75000   1.0401479      20.169068      47.225213    
     76000   1.0214568      20.797153      46.949605    
     77000   0.96138994     20.92834       46.945823    
     78000   1.0147476      20.547619      46.989197    
     79000   0.98268055     20.571238      47.042449    
     80000   0.98368881     20.55654       46.982856    
     81000   0.96993689     20.461398      46.803481    
     82000   1.0250764      20.649332      46.627007    
     83000   1.0264279      20.571935      46.786412    
     84000   0.98578868     20.393301      46.684261    
     85000   1.0272298      20.718146      46.677901    
     86000   1.0299989      20.566798      46.663593    
     87000   0.96972658     21.200579      46.621987    
     88000   0.98313081     20.390772      46.785919    
     89000   0.97017191     20.545131      46.956626    
     90000   1.0734976      20.422915      46.801347    
     91000   1.0137758      20.318451      46.41817     
     92000   0.9349441      20.32445       46.347607    
     93000   0.99408119     20.40174       46.117813    
     94000   1.0267001      20.591186      46.046278    
     95000   1.0081194      21.016567      46.16536     
     96000   0.97758484     20.55053       46.220587    
     97000   1.015085       20.256999      46.072799    
     98000   1.0220239      21.009526      46.25963     
     99000   0.97050181     20.746102      46.204696    
    100000   0.99414334     20.937523      46.074378    
Loop time of 426.398 on 2 procs for 100000 steps with 897 atoms

Performance: 202627.630 tau/day, 234.523 timesteps/s
102.8% CPU use with 1 MPI tasks x 2 OpenMP threads

MPI task timing breakdown:
Section |  min time  |  avg time  |  max time  |%varavg| %total
---------------------------------------------------------------
Pair    | 1.6673     | 1.6673     | 1.6673     |   0.0 |  0.39
Bond    | 2.5342     | 2.5342     | 2.5342     |   0.0 |  0.59
Neigh   | 416        | 416        | 416        |   0.0 | 97.56
Comm    | 0.042636   | 0.042636   | 0.042636   |   0.0 |  0.01
Output  | 0.3899     | 0.3899     | 0.3899     |   0.0 |  0.09
Modify  | 5.3769     | 5.3769     | 5.3769     |   0.0 |  1.26
Other   |            | 0.3838     |            |       |  0.09

Nlocal:            897 ave         897 max         897 min
Histogram: 1 0 0 0 0 0 0 0 0 0
Nghost:              0 ave           0 max           0 min
Histogram: 1 0 0 0 0 0 0 0 0 0
Neighs:           8258 ave        8258 max        8258 min
Histogram: 1 0 0 0 0 0 0 0 0 0

Total # of neighbors = 8258
Ave neighs/atom = 9.206243
Ave special neighs/atom = 1.9977703
Neighbor list builds = 1187
Dangerous builds = 0

# Replace lj potential, now collapse
pair_style      lj/cut 3

# Cutoff simul when gyration under 7
# Variable created with equal requires v_ + 'name'
fix 3 all halt 1000 v_rog < 7

run 3000000
Generated 0 of 0 mixed pair_coeff terms from geometric mixing rule
Last active /omp style is angle_style cosine/omp
Per MPI rank memory allocation (min/avg/max) = 1862 | 1862 | 1862 Mbytes
   Step          Temp         Enthalpy         c_1      
    100000   0.99414334     20.08015       46.074378    
    101000   1.0379833      20.124131      46.062237    
    102000   0.97615074     19.378028      45.797183    
    103000   0.99972089     19.465439      45.649797    
    104000   1.0041237      19.039872      45.380039    
    105000   0.97839838     19.166296      45.339328    
    106000   0.98786864     19.364298      45.230846    
    107000   1.0144031      18.618849      45.321821    
    108000   1.0514579      19.034363      45.309941    
    109000   0.98169033     18.481229      45.328102    
    110000   1.0170429      18.512754      45.196122    
    111000   1.0126226      19.044468      44.948029    
    112000   0.96954658     18.530672      44.716263    
    113000   1.0225206      18.433298      44.61206     
    114000   1.014788       18.552673      44.617785    
    115000   1.0112577      18.296023      44.590062    
    116000   1.0113595      17.811061      44.493059    
    117000   0.96249127     18.251367      44.382202    
    118000   1.01263        18.047767      44.444965    
    119000   1.0496861      17.936175      44.275313    
    120000   1.0080078      17.860644      44.308458    
    121000   1.0400898      18.138803      44.079418    
    122000   0.98809491     17.774332      44.127241    
    123000   0.96868783     17.989369      43.907122    
    124000   1.0292997      18.69441       43.740245    
    125000   0.9868299      17.918742      43.434257    
    126000   1.0578738      18.063552      43.311956    
    127000   0.98311552     18.491806      43.095509    
    128000   1.0003433      18.086466      42.90035     
    129000   0.95965116     17.839786      42.74556     
    130000   1.0425798      17.446893      42.665489    
    131000   0.99421727     18.360938      42.450092    
    132000   1.0296919      17.828715      42.55588     
    133000   0.99782808     18.387762      42.563749    
    134000   1.0079323      17.939488      42.370561    
    135000   1.0187673      18.36787       42.365737    
    136000   0.96302332     17.616074      42.375702    
    137000   1.0044293      17.53702       42.041823    
    138000   0.99541114     18.175421      41.789757    
    139000   0.9797306      18.477692      41.37586     
    140000   1.012247       17.772895      41.27951     
    141000   0.9754537      17.756377      41.333493    
    142000   0.99875416     17.683638      41.340721    
    143000   1.0596394      18.106607      41.167651    
    144000   0.98753575     17.98481       41.033095    
    145000   0.98980441     17.550885      41.01479     
    146000   0.98835161     18.390302      41.007701    
    147000   0.97910946     17.927144      40.853407    
    148000   0.97497994     18.359781      40.72668     
    149000   1.0110765      17.925366      40.509945    
    150000   0.99069675     18.009466      40.534489    
    151000   1.0496541      17.962771      40.226413    
    152000   0.98675558     17.845212      40.11379     
    153000   0.93134212     17.894405      39.838352    
    154000   0.99417276     17.724441      39.747625    
    155000   0.99215012     17.64606       39.900433    
    156000   1.0401438      18.222668      39.698507    
    157000   1.0050277      18.194247      39.630198    
    158000   0.99423635     18.314382      39.484422    
    159000   0.99313594     18.484221      39.560998    
    160000   1.0018784      18.231588      39.044084    
    161000   0.98378916     17.681919      38.96693     
    162000   0.96888719     17.977637      38.837258    
    163000   0.99138494     17.991475      38.683575    
    164000   0.98985033     17.919433      38.690133    
    165000   1.0344016      18.178752      38.742249    
    166000   1.026264       17.98401       38.51364     
    167000   0.9978692      18.027871      38.395826    
    168000   1.0090015      17.718745      38.264349    
    169000   0.98009601     18.079773      38.103858    
    170000   0.99915549     18.184587      38.219831    
    171000   0.98218057     17.852747      37.912728    
    172000   1.0280677      17.716619      37.980079    
    173000   0.96545708     18.092404      37.89339     
    174000   1.0041929      18.079428      37.688073    
    175000   0.9774901      18.040878      37.615721    
    176000   1.0503865      18.168866      37.461522    
    177000   1.0518471      17.47045       37.272719    
    178000   0.97895105     17.514944      37.150442    
    179000   1.0162567      17.779097      37.304381    
    180000   1.0374326      18.416164      37.271201    
    181000   0.95719751     17.483795      37.296323    
    182000   0.99710878     17.945685      37.108569    
    183000   0.9928189      17.9797        36.887035    
    184000   1.0115896      17.773932      36.822496    
    185000   1.0016387      17.718922      36.558831    
    186000   1.0432745      17.589136      36.492111    
    187000   0.94613251     17.642294      36.597405    
    188000   1.0086017      17.866102      36.419399    
    189000   0.98460899     17.268735      36.44348     
    190000   1.0000127      18.583364      36.591939    
    191000   1.0121128      17.183929      36.688755    
    192000   0.98785953     18.528777      36.536573    
    193000   0.97549964     17.611618      36.38625     
    194000   1.0208974      18.37193       36.200663    
    195000   1.0093914      17.813619      36.099744    
    196000   0.97810565     17.904509      35.973577    
    197000   1.0325709      17.782455      35.953478    
    198000   0.95716179     17.813769      35.774787    
    199000   0.99521091     17.8768        35.726156    
    200000   0.99653019     17.953571      35.57834     
    201000   1.0429399      17.962851      35.492264    
    202000   0.99166911     17.982947      35.517843    
    203000   0.97466618     18.025356      35.239748    
    204000   0.96155834     18.038067      34.961429    
    205000   0.99848748     17.936047      34.864092    
    206000   1.0145408      17.582251      34.701586    
    207000   0.97850239     18.441264      34.762464    
    208000   1.0107247      18.341987      34.888723    
    209000   1.0069852      17.640864      34.542102    
    210000   1.0452844      17.889433      34.171385    
    211000   1.0546097      17.788608      34.014027    
    212000   0.98361099     17.070326      33.893872    
    213000   1.0618353      17.691047      33.766405    
    214000   0.97295067     17.410313      33.414499    
    215000   1.0262657      18.046857      33.183209    
    216000   0.98309251     18.293086      32.948126    
    217000   0.99011485     17.777319      33.03713     
    218000   1.0477407      17.513748      33.138288    
    219000   1.0116962      17.858468      33.321354    
    220000   1.002806       18.069466      33.325443    
    221000   0.96089435     17.258439      33.204094    
    222000   0.99702593     17.793695      33.013418    
    223000   1.0117499      17.929313      32.793122    
    224000   0.96905125     17.778944      32.540231    
    225000   0.96798259     17.712358      32.270773    
    226000   0.96173483     17.219476      32.171937    
    227000   0.99515233     17.935488      32.04122     
    228000   1.029411       17.728431      32.158582    
    229000   1.0089071      17.924401      32.119829    
    230000   0.98329824     17.830588      32.194217    
    231000   0.97053385     17.715623      32.298293    
    232000   1.001676       17.581915      32.139063    
    233000   1.0257247      17.955634      31.724338    
    234000   0.97343756     17.688835      31.589795    
    235000   0.98745595     18.350448      31.544354    
    236000   0.99677726     18.130579      31.459843    
    237000   1.0256473      17.954998      31.624888    
    238000   1.0311036      17.797333      31.365891    
    239000   1.0099898      18.497404      31.160317    
    240000   1.0178449      17.645233      31.081448    
    241000   1.0087102      18.136593      31.202371    
    242000   1.0066144      17.435024      31.354147    
    243000   0.9931217      17.530378      31.139017    
    244000   1.0409139      18.016063      31.13849     
    245000   0.99256458     17.414065      30.950244    
    246000   0.98322515     17.773202      30.957234    
    247000   0.99236256     18.274834      30.7998      
    248000   1.0500536      17.780257      30.7513      
    249000   1.0204513      18.098803      30.773576    
    250000   1.0301148      18.01144       30.781782    
    251000   1.0321835      17.430722      30.56287     
    252000   0.98818549     17.883896      30.454625    
    253000   0.98136037     18.340473      30.375323    
    254000   0.99354761     17.793351      30.200098    
    255000   1.0371114      17.752566      29.93618     
    256000   0.9977484      17.782336      30.088502    
    257000   1.0168787      17.925755      29.92635     
    258000   1.0299158      17.771732      30.043699    
    259000   1.0202588      17.638353      30.011484    
    260000   0.94272666     17.431315      30.027935    
    261000   1.0198907      17.716396      29.949614    
    262000   0.99143904     17.578221      29.816467    
    263000   0.96812019     17.754967      29.643662    
    264000   1.0175683      17.811017      29.383156    
    265000   1.0120945      16.729181      29.392757    
    266000   0.99112859     17.918873      29.250072    
    267000   1.0261612      17.490415      29.180431    
    268000   1.0261744      17.150221      28.851807    
    269000   1.0196522      17.91284       28.613515    
    270000   1.0265876      17.430128      28.296377    
    271000   1.0075067      18.471641      28.257596    
    272000   0.96802504     18.158641      28.222258    
    273000   1.0100792      17.210087      28.480194    
    274000   0.97280947     17.849961      28.286349    
    275000   1.0223926      17.789228      27.859022    
    276000   0.98376179     16.903118      27.624799    
    277000   1.0344083      18.145129      27.540719    
    278000   0.96959031     17.871637      27.23509     
    279000   0.96450071     17.139786      27.056499    
    280000   1.020089       18.271608      27.005651    
    281000   0.97174757     17.397509      27.064359    
    282000   1.0095709      17.412002      26.932213    
    283000   1.0398277      17.623216      26.817278    
    284000   0.99101197     18.235311      26.571719    
    285000   1.0629567      17.589325      26.462774    
    286000   0.97426604     17.922024      26.455935    
    287000   1.0043626      17.433474      26.272909    
    288000   0.9697729      17.413446      26.210563    
    289000   1.0088462      17.191106      26.224566    
    290000   0.99295401     17.755044      25.788152    
    291000   1.0013238      17.153611      25.734803    
    292000   0.9997529      16.925358      25.525184    
    293000   0.9918052      17.174768      25.384785    
    294000   0.97701713     17.059791      25.282497    
    295000   1.044864       17.617862      25.252776    
    296000   0.97449725     17.107633      25.163139    
    297000   0.99292978     17.13865       25.007413    
    298000   0.9880242      17.374657      24.723417    
    299000   0.95585965     17.774364      24.6768      
    300000   0.95269975     17.037867      24.773063    
    301000   0.99574081     18.098374      24.800596    
    302000   0.97249948     17.029963      24.862035    
    303000   0.99131566     17.195326      24.800546    
    304000   1.0487353      17.790378      24.607334    
    305000   1.0198295      17.532513      24.325371    
    306000   0.9712101      17.746001      23.989635    
    307000   1.0266323      17.660915      23.8167      
    308000   0.9888888      17.019637      23.684101    
    309000   0.9715983      17.366174      23.675877    
    310000   0.98972296     17.718747      23.899658    
    311000   1.0054489      17.372327      23.825159    
    312000   1.0214763      18.050552      23.8689      
    313000   1.0010619      17.711721      23.982478    
    314000   1.0099684      17.267558      23.961179    
    315000   0.96785346     17.302386      23.758249    
    316000   0.99596929     17.446545      23.637928    
    317000   1.0146323      17.072471      23.577318    
    318000   0.97095403     17.265149      23.487936    
    319000   1.0146165      16.833637      23.371453    
    320000   0.99098224     17.728321      23.183296    
    321000   0.99117638     17.702726      23.254457    
    322000   1.0256473      17.417999      23.127443    
    323000   1.0393749      17.602253      22.727213    
    324000   1.0124472      17.888923      22.60542     
    325000   1.0059605      18.081591      22.610595    
    326000   0.96107999     17.775527      22.68089     
    327000   1.0088468      17.792899      22.214871    
    328000   0.97154487     17.728632      22.342205    
    329000   1.006863       17.101333      22.090793    
    330000   1.0407862      17.144927      21.825855    
    331000   1.0324573      17.177911      21.631855    
    332000   1.0142812      17.968263      21.568942    
    333000   0.98420725     18.045833      21.464864    
    334000   1.0236673      17.10455       21.339813    
    335000   0.95278649     17.824802      21.392744    
    336000   1.0127611      17.475347      21.336051    
    337000   1.0079431      17.429662      21.093187    
    338000   1.0330713      17.044922      21.372062    
    339000   0.97311259     17.573555      21.278857    
    340000   1.0233122      17.14356       21.145922    
    341000   1.004996       17.218338      21.175627    
    342000   1.0257602      17.164229      21.072066    
    343000   0.99527798     17.51508       21.145951    
    344000   0.97748054     17.654878      20.969938    
    345000   1.0008831      17.847831      20.999597    
    346000   0.9990562      17.488633      21.103489    
    347000   0.97653912     17.241324      21.129293    
    348000   1.0536805      17.744137      21.176838    
    349000   1.0304526      17.243296      20.805662    
    350000   1.0344259      17.46257       20.741185    
    351000   0.98165519     17.545466      20.585555    
    352000   0.98902616     17.748974      20.473811    
    353000   0.98747048     17.388941      20.48923     
    354000   0.93783215     17.398703      20.582227    
    355000   1.0104803      17.753866      20.406066    
    356000   0.99224427     16.934769      20.415151    
    357000   0.99735181     17.703389      20.288665    
    358000   1.0030768      17.504079      20.233772    
    359000   1.0169084      17.205811      20.296173    
    360000   0.99502514     16.843258      20.264969    
    361000   0.99746798     17.332023      20.324521    
    362000   1.0076704      17.331814      20.273655    
    363000   1.0003489      17.024137      20.134632    
    364000   0.99932873     17.241835      20.284505    
    365000   1.0000671      17.38835       20.288629    
    366000   1.01393        17.128142      20.228551    
    367000   0.98615422     16.954658      19.809815    
    368000   1.021618       17.280162      19.924705    
    369000   0.96093037     17.607925      20.103433    
    370000   1.0253391      16.497092      20.130086    
    371000   1.0229343      16.854159      20.13721     
    372000   1.0021572      17.452917      20.254606    
    373000   1.0250072      17.19528       20.162096    
    374000   0.98245589     17.863304      20.062365    
    375000   0.95641087     17.351026      20.060993    
    376000   0.97282727     17.515866      20.042232    
    377000   1.0105418      17.732744      20.136927    
    378000   0.98101213     16.474178      20.391512    
    379000   0.97044559     17.660319      20.241361    
    380000   0.98895382     17.560247      20.292395    
    381000   0.99177232     17.390603      20.148584    
    382000   1.0105649      16.750154      20.150373    
    383000   1.000487       17.454346      20.086129    
    384000   0.99590236     17.381266      20.056874    
    385000   0.95060779     16.71243       19.847014    
    386000   0.96920519     16.806243      19.928733    
    387000   1.0159169      16.955165      20.009887    
    388000   0.97569653     17.168131      19.766336    
    389000   1.0416897      17.328573      19.705976    
    390000   0.99720278     17.517712      19.626598    
    391000   1.0332489      18.401096      19.632545    
    392000   0.95215547     16.434512      19.469098    
    393000   1.0126661      17.568364      19.454541    
    394000   0.96607915     16.985272      19.61449     
    395000   0.98693956     17.649893      19.550565    
    396000   1.0106287      17.648588      19.441958    
    397000   0.98986984     17.56555       19.341778    
    398000   1.0097963      17.933138      19.218655    
    399000   1.07584        17.138277      19.104192    
    400000   0.99605246     17.696195      19.025474    
    401000   1.0009644      17.446357      19.104286    
    402000   0.976033       17.380762      19.230926    
    403000   1.0201332      16.976763      19.12591     
    404000   0.98228418     17.238309      19.213206    
    405000   1.0222942      17.335089      19.105896    
    406000   1.0363846      17.037592      19.109925    
    407000   0.9783711      17.741999      18.919406    
    408000   1.024693       17.559656      18.715864    
    409000   0.97969547     16.914506      18.710708    
    410000   1.0402971      17.512116      18.661658    
    411000   1.002751       17.751389      18.675971    
    412000   0.98291569     17.846346      18.646518    
    413000   0.99950993     17.229444      18.943442    
    414000   1.0364129      17.025472      18.913344    
    415000   1.0068491      17.775739      18.682805    
    416000   0.99571288     17.514696      18.644423    
    417000   0.98631652     17.14637       18.738529    
    418000   0.9820664      17.158443      18.620408    
    419000   0.971213       17.454399      18.530007    
    420000   0.99645551     16.890081      18.407628    
    421000   0.93552828     17.318366      18.398983    
    422000   1.0050176      17.570123      18.200171    
    423000   1.0486681      17.871717      18.100948    
    424000   1.0341074      17.728034      18.068869    
    425000   1.0391538      17.55686       17.839415    
    426000   0.99934652     16.794093      17.707462    
    427000   1.0330567      16.849072      17.618303    
    428000   0.99668985     17.412108      17.380952    
    429000   1.0026754      17.220219      17.472313    
    430000   0.99931503     16.733714      17.347153    
    431000   1.0035909      17.718546      17.368838    
    432000   1.0284325      17.688969      17.342143    
    433000   0.97143878     18.094693      17.469378    
    434000   1.0286613      17.381074      17.47062     
    435000   1.0127539      17.631806      17.762165    
    436000   0.97590924     17.272686      17.571791    
    437000   1.027907       17.463422      17.649778    
    438000   0.98174867     17.321996      17.676928    
    439000   1.0065993      17.929525      17.703634    
    440000   1.0218591      17.535932      17.80283     
    441000   1.0049277      17.033867      17.780836    
    442000   0.99598564     17.222867      18.077374    
    443000   0.96211892     17.09706       18.146314    
    444000   1.0149379      17.711239      17.996414    
    445000   0.98851841     16.909694      17.912761    
    446000   0.95909536     17.520051      17.75628     
    447000   1.0033865      17.659649      17.992024    
    448000   0.99038981     16.690379      17.733115    
    449000   1.0038819      17.584256      17.855205    
    450000   0.98155492     17.282053      17.629045    
    451000   0.99621595     17.584627      17.660382    
    452000   0.98036202     17.486952      17.563709    
    453000   0.99673837     17.573651      17.392147    
    454000   1.0349181      17.612461      17.123981    
    455000   0.99170082     16.588226      16.906656    
    456000   0.99522469     17.255698      16.568286    
    457000   1.0192812      16.923087      16.593876    
    458000   0.97398861     18.005533      16.533325    
    459000   1.0356701      16.849599      16.368702    
    460000   0.98528173     16.928523      16.241499    
    461000   1.0130289      17.609783      16.327785    
    462000   1.004578       17.228842      16.25812     
    463000   0.96798954     16.99485       16.152966    
    464000   0.99825247     17.336995      16.143698    
    465000   0.99562062     17.056566      16.043394    
    466000   0.98937534     16.758776      16.092681    
    467000   1.0230358      16.501219      16.097776    
    468000   0.99181535     17.127989      16.103253    
    469000   0.9890757      17.313401      16.043634    
    470000   1.0409867      17.54236       16.133424    
    471000   0.98166165     17.776362      15.921921    
    472000   0.97412507     17.525515      15.986357    
    473000   1.0342028      17.160535      15.942208    
    474000   1.0148071      17.4351        15.766731    
    475000   0.9562601      17.10418       15.635374    
    476000   0.96220357     16.923399      15.538594    
    477000   1.0252953      17.520991      15.41824     
    478000   1.0083915      17.082552      15.233166    
    479000   1.0336943      17.403557      14.97497     
    480000   0.99468044     16.749318      14.789519    
    481000   0.9927964      17.543555      14.756903    
    482000   1.0145758      17.148619      14.599586    
    483000   1.0082868      17.536241      14.494383    
    484000   0.97718892     17.324826      14.163753    
    485000   0.97490003     17.446661      14.227926    
    486000   1.051808       17.249916      14.248373    
    487000   0.97687502     17.348663      14.121373    
    488000   1.0517871      17.897735      14.24811     
    489000   0.99706185     17.226119      14.178595    
    490000   1.0131049      16.832677      13.938845    
    491000   0.99719506     17.065573      13.925891    
    492000   1.0068535      17.295164      13.695959    
    493000   0.99058361     17.537943      13.55715     
    494000   1.0407264      17.033579      13.547404    
    495000   0.98458088     16.927493      13.450858    
    496000   0.99926248     17.205293      13.320742    
    497000   1.0512134      17.039043      13.261246    
    498000   1.0097984      17.702783      13.002363    
    499000   0.97851952     17.281618      12.812343    
    500000   1.0208293      16.810597      12.746432    
    501000   1.0240935      17.782173      12.740221    
    502000   0.97156937     17.160558      12.671547    
    503000   1.0178901      16.47686       12.527103    
    504000   1.0510459      17.438057      12.313889    
    505000   1.0026216      17.372916      12.39314     
    506000   0.95865008     16.53879       12.309509    
    507000   0.99574871     17.432713      12.363216    
    508000   0.98672003     16.840109      12.485711    
    509000   1.0075022      17.658415      12.31743     
    510000   1.0091622      17.179005      12.408533    
    511000   0.97413262     17.17814       12.181169    
    512000   0.96300592     17.333952      12.139225    
    513000   0.9448471      17.050544      12.171111    
    514000   0.98671177     17.371805      12.258586    
    515000   0.99231044     17.510122      12.202894    
    516000   1.0494212      17.556494      11.92709     
    517000   0.97560671     17.429029      11.694624    
    518000   1.0049701      17.523515      11.764374    
    519000   0.97441023     16.903042      11.839369    
    520000   1.0267264      17.293413      11.695793    
    521000   1.0243534      17.383394      11.641562    
    522000   0.99057002     17.221646      11.806661    
    523000   1.0047765      17.728178      11.892856    
    524000   1.0565601      17.548623      11.821012    
    525000   1.0466163      16.887306      11.902365    
    526000   1.0271606      17.768658      11.848967    
    527000   0.98806247     16.909593      11.959526    
    528000   1.0259255      16.813895      12.043231    
    529000   0.9918323      17.796972      12.005191    
    530000   1.0606619      17.996563      12.031806    
    531000   1.0117284      17.716707      11.93553     
    532000   1.0003545      17.249232      11.767888    
    533000   0.99410858     17.215162      11.770431    
    534000   0.95287503     17.324299      11.680375    
    535000   1.0125145      16.884967      11.527609    
    536000   0.97696371     17.117115      11.2999      
    537000   0.98169252     17.939362      11.146154    
    538000   1.0172156      17.195748      11.05889     
    539000   0.92188781     16.783018      11.320262    
    540000   1.0110595      16.937453      10.919254    
    541000   0.94942504     16.88325       11.049538    
    542000   1.0375215      16.993529      10.906855    
    543000   1.0129209      17.215137      10.841784    
    544000   0.98973507     17.24651       10.832241    
    545000   1.0312319      17.299473      10.670607    
    546000   1.0431926      17.551304      10.488313    
    547000   1.0235054      16.892878      10.410769    
    548000   1.0169767      17.760717      10.441566    
    549000   0.9737418      17.162495      10.376917    
    550000   0.95128081     17.258439      10.444022    
    551000   1.0193955      17.026607      10.391197    
    552000   0.97969318     17.310456      10.329242    
    553000   1.0007396      16.989563      10.355275    
    554000   0.9824492      17.221879      10.481443    
    555000   0.97130961     16.244046      10.500617    
    556000   0.97041923     17.048712      10.478223    
    557000   0.98643802     16.823214      10.303222    
    558000   1.0150619      17.593485      10.31715     
    559000   0.98842739     16.546022      10.388726    
    560000   1.0394966      17.006425      10.128846    
    561000   1.0041141      17.211304      9.8422137    
    562000   0.9878618      18.059089      9.9207317    
    563000   0.98382149     16.88208       9.7638076    
    564000   1.0220859      17.626572      9.7938164    
    565000   1.0139768      16.756364      9.653731     
    566000   0.99649109     16.4706        9.5682007    
    567000   0.98344981     17.088456      9.6987506    
    568000   1.0296184      16.636033      9.6597186    
    569000   1.0554567      16.750487      9.4091898    
    570000   1.0384796      18.090696      9.4392165    
    571000   1.0349838      17.132107      9.4806263    
    572000   0.98970764     17.32985       9.37659      
    573000   0.95793458     16.991685      9.3860722    
    574000   0.99107995     17.129231      9.3763106    
    575000   0.97791814     17.01935       9.0971329    
    576000   0.98166253     17.496371      8.8773921    
    577000   1.0364598      17.755898      8.9159883    
    578000   1.0221162      17.697989      8.9728159    
    579000   1.0005878      17.230518      8.8779894    
    580000   0.99412692     17.009155      8.7827849    
    581000   1.0102931      17.427255      8.6544653    
    582000   1.014059       16.770657      8.6887766    
    583000   0.99075349     17.698188      8.6662321    
    584000   0.99893828     17.21452       8.7589872    
    585000   0.94693303     17.205184      8.9285611    
    586000   0.94247299     17.069577      8.7515515    
    587000   0.98936941     17.071928      8.9555126    
    588000   1.0303182      16.582082      9.0153188    
    589000   1.0386487      18.068055      8.9273359    
    590000   1.0081756      17.2494        8.9850122    
    591000   1.0108016      17.06918       8.886365     
    592000   1.0303602      17.512726      8.7157093    
    593000   1.0031492      16.786819      8.8334297    
    594000   1.0488147      17.444498      8.7136625    
    595000   1.0533855      17.306095      8.7253964    
    596000   0.98040525     16.681164      8.6217768    
    597000   0.99503007     17.241706      8.5971798    
    598000   0.9718694      16.718837      8.5392369    
    599000   1.0146437      17.151334      8.3803706    
    600000   1.0198786      17.008878      8.5015939    
    601000   1.0435291      17.328853      8.4439851    
    602000   0.99693429     17.548062      8.6304578    
    603000   0.93310583     16.823553      8.7691901    
    604000   0.99387405     17.45458       8.792431     
    605000   1.0337995      16.978971      8.7546932    
    606000   1.0115417      17.537708      8.5944114    
    607000   0.94936033     16.778643      8.5203586    
    608000   1.0577         17.130598      8.4942345    
    609000   0.95615928     17.865039      8.4990507    
    610000   0.97339538     16.632591      8.6892169    
    611000   0.98796034     16.572117      8.781065     
    612000   1.0396475      16.830043      8.7725881    
    613000   0.92905145     16.712367      8.8391327    
    614000   0.9884766      17.23141       8.7499001    
    615000   1.0079683      17.696432      8.5385054    
    616000   0.97253869     16.96194       8.418829     
    617000   1.0004438      16.6957        8.5388237    
    618000   0.98140703     17.143073      8.3202782    
    619000   0.98950226     16.836976      8.185988     
    620000   1.0396046      17.433119      8.1523375    
    621000   1.015236       17.542726      7.9751133    
    622000   0.97516448     16.629331      7.9319535    
    623000   1.0102709      17.364247      7.8404186    
    624000   1.0009251      16.595588      7.8932877    
    625000   1.0116217      17.362826      7.8637486    
    626000   1.0142995      17.055622      7.7062834    
    627000   1.0514546      17.961829      7.6839931    
    628000   1.0276046      17.573127      7.7065462    
    629000   1.0352667      17.47998       7.6671791    
    630000   1.0231824      16.92959       7.8194132    
    631000   1.0043172      16.979703      7.5080462    
    632000   0.99732556     17.478743      7.3284805    
    633000   1.0314016      17.132293      7.2379371    
    634000   1.0227352      16.918797      7.0334429    
Fix halt condition for fix-id 3 met on step 635000 with value 6.662842636666146 (src/fix_halt.cpp:237)
    635000   0.97246078     16.778522      6.6628426    
Loop time of 926.588 on 2 procs for 535000 steps with 897 atoms

Performance: 498862.282 tau/day, 577.387 timesteps/s
135.7% CPU use with 1 MPI tasks x 2 OpenMP threads

MPI task timing breakdown:
Section |  min time  |  avg time  |  max time  |%varavg| %total
---------------------------------------------------------------
Pair    | 263.71     | 263.71     | 263.71     |   0.0 | 28.46
Bond    | 17.486     | 17.486     | 17.486     |   0.0 |  1.89
Neigh   | 603.81     | 603.81     | 603.81     |   0.0 | 65.17
Comm    | 0.31462    | 0.31462    | 0.31462    |   0.0 |  0.03
Output  | 2.4491     | 2.4491     | 2.4491     |   0.0 |  0.26
Modify  | 35.873     | 35.873     | 35.873     |   0.0 |  3.87
Other   |            | 2.944      |            |       |  0.32

Nlocal:            897 ave         897 max         897 min
Histogram: 1 0 0 0 0 0 0 0 0 0
Nghost:              0 ave           0 max           0 min
Histogram: 1 0 0 0 0 0 0 0 0 0
Neighs:         177985 ave      177985 max      177985 min
Histogram: 1 0 0 0 0 0 0 0 0 0

Total # of neighbors = 177985
Ave neighs/atom = 198.42252
Ave special neighs/atom = 1.9977703
Neighbor list builds = 4347
Dangerous builds = 0

# This simulation is done
# Move onto the next one
clear
  using 2 OpenMP thread(s) per MPI task
package omp 0
using multi-threaded neighbor list subroutines
next f
jump SELF

###
# Reference paper:
# K. Kremer and G. S. Grest
# Dynamics of entangled linear polymer melts: A molecular-dynamics simulation
# J Chem Phys 92, 5057 (1990)

##################################
# MIHIR: for branched polymers
# LJ minimum first to expand and explore, then collapse
###

###
# Looping through the various N5B4 polymers to simulate,
# define variables to switch through
variable f index bb37nuc5bl6bn4d30tot100V2 bb75nuc5bl12bn4d30tot200V2 bb112nuc5bl18bn4d30tot300V2 bb150nuc5bl25bn4d30tot400V2 bb187nuc5bl31bn4d30tot500V2 bb225nuc5bl37bn4d30tot600V2 bb262nuc5bl43bn4d30tot700V2 bb300nuc5bl50bn4d30tot800V2 bb337nuc5bl56bn4d30tot900V2 bb375nuc5bl62bn4d30tot1000V2 bb412nuc5bl68bn4d30tot1100V2 bb450nuc5bl75bn4d30tot1200V2
# variable f index bb37nuc5bl6bn4d30tot100V3 bb75nuc5bl12bn4d30tot200V3 bb112nuc5bl18bn4d30tot300V3 bb150nuc5bl25bn4d30tot400V3 bb187nuc5bl31bn4d30tot500V3 bb225nuc5bl37bn4d30tot600V3 bb262nuc5bl43bn4d30tot700V3 bb300nuc5bl50bn4d30tot800V3 bb337nuc5bl56bn4d30tot900V3 bb375nuc5bl62bn4d30tot1000V3 bb412nuc5bl68bn4d30tot1100V3 bb450nuc5bl75bn4d30tot1200V3
# variable f index bb37nuc5bl6bn4d30tot100 bb75nuc5bl12bn4d30tot200 bb112nuc5bl18bn4d30tot300 bb150nuc5bl25bn4d30tot400 bb187nuc5bl31bn4d30tot500 bb225nuc5bl37bn4d30tot600 bb262nuc5bl43bn4d30tot700 bb300nuc5bl50bn4d30tot800 bb337nuc5bl56bn4d30tot900 bb375nuc5bl62bn4d30tot1000 bb412nuc5bl68bn4d30tot1100 bb450nuc5bl75bn4d30tot1200
###


###
# Box and units  (use LJ units and periodic boundaries)
###

units lj
log N5B4/trial2/logs3/$f.log
log N5B4/trial2/logs3/bb375nuc5bl62bn4d30tot1000V2.log
