#atom_style bond #no stiffness
atom_style angle #with stiffness

boundary        p p p
###
# Pair interactions require lists of neighbours to be calculated
###

#neighbor 0.3 bin
neighbor 4 bin

neigh_modify every 1 delay 1 check yes
atom_modify sort 0 0
### Generate RESTART file, SPECIAL format, not a .txt file ###
### Useful if simulation crashes ###

restart 1000000 N1B4/trial2/restarts/$f.restart
restart 1000000 N1B4/trial2/restarts/bb251nuc1bl125bn4d30tot500V2.restart
#############################



### READ "start" data file ###

read_data N1B4/trial2/dats2/$f.dat
read_data N1B4/trial2/dats2/bb251nuc1bl125bn4d30tot500V2.dat
Reading data file ...
  orthogonal box = (-1000 -1000 -1000) to (1000 1000 1000)
  1 by 1 by 1 MPI processor grid
  reading atoms ...
  501 atoms
  scanning bonds ...
  3 = max bonds/atom
  scanning angles ...
  6 = max angles/atom
  reading bonds ...
  500 bonds
  reading angles ...
  502 angles
Finding 1-2 1-3 1-4 neighbors ...
  special bond factors lj:    0        0        0       
  special bond factors coul:  0        0        0       
     4 = max # of 1-2 neighbors
     4 = max # of 1-3 neighbors
     8 = max # of 1-4 neighbors
    12 = max # of special neighbors
  special bonds CPU = 0.002 seconds
  read_data CPU = 0.146 seconds

######################

### READ "REstart" data file ###

######################



###
# Define groups (atom type 1 is group 'all')
###
group all type 1
501 atoms in group all


###
# Dump configs - "simple dumpings"
###

###
# Dump configs + box coords
###

dump   1   all   custom   1000  N1B4/trial2/trjs/$f.lammpstrj  id  x y z  ix iy iz
dump   1   all   custom   1000  N1B4/trial2/trjs/bb251nuc1bl125bn4d30tot500V2.lammpstrj  id  x y z  ix iy iz
dump_modify   1   format line "%d %.5f %.5f %.5f %d %d %d"

########################################################################


###################################################################
# Stiffness term
#
# E = K * (1+cos(theta)), K>0
#
angle_style   cosine
#change this coefficient to change stiffness (e.g. 1,5,10)
angle_coeff   1 1.0
###################################################################

###################################################################
# Pair interaction between non-bonded atoms
#
#  Lennard-Jones 12-6 potential with cutoff:
#  potential E=4epsilon[ (sigma/r)^12 - (sigma/r)^6]  for r<r_cut
#
#  1.12246 = 2^(1/6) is the minimum of the potential


pair_style      lj/cut 1.12246152962189
#pair_style      lj/cut 3

#
#  pair_modify shift yes adds a constant to the potential such

#  that E(r_cut)=0. Forces remains unchanged.
#

pair_modify     shift yes

#
#  pair_coeff for lj/cut, specify 4:
#    * atom type interacting with
#    * atom type
#    * epsilon (energy units)
#    * sigma (distance units)
#

pair_coeff      1 1 1.0 1.0
###################################################################

###################################################################
# Pair interaction between non-bonded atoms
#
#  soft potential, for PUSHING apart overlapping atoms
#  potential E=A*(1 + cos(pi*r/r_c))
#
#  1.12246 = 2^(1/6) is the cut-off r_c

#pair_style     soft 1.12246152962189

#
#  pair_coeff for soft, specify 3:
#    * atom type interacting with
#    * atom type
#    * A
#
#

#pair_coeff      1 1 100.0
###################################################################

###################################################################
# Pair interaction between bonded atoms
#
# Fene potential + Lennard Jones 12-6:

#
#  E= - 0.5 K R0^2 ln[ 1- (r/R0)^2]
#     + 4epsilon[ (sigma/r)^12 - (sigma/r)^6] + epsilon
#

bond_style   fene


#
# For style fene, specify:
#   * bond type
#   * K (energy/distance^2)
#   * R0 (distance)
#   * epsilon (energy)  (LJ component)
#   * sigma (distance)  (LJ component)
#


special_bonds fene #<=== I M P O R T A N T (new command)
Finding 1-2 1-3 1-4 neighbors ...
  special bond factors lj:    0        1        1       
  special bond factors coul:  0        1        1       
     4 = max # of 1-2 neighbors
    12 = max # of special neighbors
  special bonds CPU = 0.001 seconds

bond_coeff   1   30   2   1.0   1.0


###################################################

###################################################################
# Pair interaction between bonded atoms
#
# Harmonic potential:
#
#  E= K * (R-R0)^2
#

#bond_style   harmonic

#
# For style harmonic, specify:
#   * bond type
#   * K (energy/distance^2)
#   * R0 (distance)
#

#bond_coeff   1   60.0   1.0
#bond_coeff   2   harmonic 0.1   1.0

###################################################
compute 1 all gyration
variable rog equal c_1
#compute 2 all coord/atom cutoff 1.1

#dump 2 all custom 10000 contact_number.dump id c_2


###
# Set up fixes
###
thermo_style   custom   step  temp enthalpy c_1
fix 1 all nve   ###NVE ensemble

fix 2 all   langevin   1.0 1.0 1.0  778655   ###Langevin integrator Tstart Tstop 1/friction rndseed


##### Sample thermodynamic info  (temperature, energy, pressure, etc.) #####
thermo 1000









############################################################################

###
# set timestep of integrator

timestep 0.01

###
# run integration for a number of steps
###
#run 0
#variable r equal c_1
#if "$r < 63.1" then "quit 1"

# lj potential minimum, cause molecule to explore
run 100000
Generated 0 of 0 mixed pair_coeff terms from geometric mixing rule
Last active /omp style is angle_style cosine/omp
Neighbor list info ...
  update: every = 1 steps, delay = 1 steps, check = yes
  max neighbors/atom: 2000, page size: 100000
  master list distance cutoff = 5.1224615
  ghost atom cutoff = 5.1224615
  binsize = 2.5612308, bins = 781 781 781
  1 neighbor lists, perpetual/occasional/extra = 1 0 0
  (1) pair lj/cut/omp, perpetual
      attributes: half, newton on, omp
      pair build: half/bin/newton/omp
      stencil: half/bin/3d
      bin: standard
WARNING: Communication cutoff 5.12246152962189 is shorter than a bond length based estimate of 5.455. This may lead to errors. (src/comm.cpp:723)
Per MPI rank memory allocation (min/avg/max) = 1861 | 1861 | 1861 Mbytes
   Step          Temp         Enthalpy         c_1      
         0   0              13.237888      65.891059    
      1000   0.9320046      18.048749      64.870928    
      2000   0.96125623     18.410324      63.970826    
      3000   1.0419705      19.02146       62.879463    
      4000   1.0077296      19.175618      62.075948    
      5000   1.0210495      18.860377      61.242063    
      6000   1.0033912      18.976436      60.478268    
      7000   1.0412042      20.047088      59.571378    
      8000   0.93422415     19.654865      59.364829    
      9000   1.0080379      19.633283      58.843876    
     10000   1.0686438      19.800659      58.357902    
     11000   1.0173293      19.299616      58.22371     
     12000   1.0422253      18.899176      57.772035    
     13000   0.94082937     19.509398      57.3186      
     14000   0.97197335     19.615471      56.940755    
     15000   0.96625255     19.806862      56.538355    
     16000   1.0125558      20.25982       56.067517    
     17000   0.92032245     19.875698      55.686754    
     18000   1.049005       19.679523      55.109498    
     19000   1.0073141      19.741962      54.615107    
     20000   1.0366746      20.571432      54.141405    
     21000   1.0287642      19.794183      54.009145    
     22000   1.1055758      20.416805      53.748498    
     23000   1.0238118      20.378851      53.295676    
     24000   1.0258992      19.73161       53.251365    
     25000   1.0226009      20.275644      52.954923    
     26000   1.0176556      20.351869      52.612648    
     27000   1.0042372      19.335115      52.437733    
     28000   1.0098471      20.203742      52.300464    
     29000   0.99134278     20.005204      51.843874    
     30000   1.0158862      20.039628      51.406542    
     31000   1.0146531      20.175987      51.249986    
     32000   0.96350455     19.354409      51.299866    
     33000   1.0308664      19.665655      51.400277    
     34000   1.0367326      20.266739      51.277851    
     35000   0.97780849     20.096171      51.119315    
     36000   0.9628961      19.832508      50.923907    
     37000   0.95885165     20.35219       50.772608    
     38000   1.0482007      20.299211      50.431761    
     39000   1.0272083      20.267191      50.288822    
     40000   1.0787031      19.382492      50.071674    
     41000   0.99228922     19.961947      49.63377     
     42000   0.94118889     20.112086      49.343759    
     43000   0.97110399     20.382221      49.187415    
     44000   1.0474442      20.287363      49.135152    
     45000   1.0115889      20.138958      49.006465    
     46000   1.0498252      20.011174      48.982562    
     47000   0.99669472     20.227939      49.026547    
     48000   1.0199492      19.957752      48.653139    
     49000   1.0239535      20.444747      48.465119    
     50000   0.97395769     19.928431      48.347954    
     51000   1.0012808      20.819141      48.175465    
     52000   1.0716624      20.965661      48.068457    
     53000   0.9631687      19.451016      47.744095    
     54000   0.96061706     19.787675      47.459416    
     55000   1.00578        19.778545      47.697143    
     56000   0.96737085     19.98831       47.31789     
     57000   0.97750135     19.837948      47.039997    
     58000   0.97640009     19.744507      46.913124    
     59000   0.91079298     20.234044      46.976363    
     60000   0.9883976      20.650227      46.56998     
     61000   1.0582755      20.274306      46.084877    
     62000   0.92430558     20.894025      45.646284    
     63000   1.0417807      19.965092      45.291793    
     64000   0.99919128     20.15646       45.333031    
     65000   1.017994       20.77771       45.39121     
     66000   1.0061959      20.639229      45.425823    
     67000   1.0033688      19.889106      45.474814    
     68000   0.97186283     20.065017      45.148116    
     69000   1.0272088      20.584644      45.020543    
     70000   0.96646791     19.515879      44.846644    
     71000   1.0457122      20.373318      44.703892    
     72000   1.0446556      20.632538      44.471116    
     73000   1.0507135      20.181226      44.303449    
     74000   0.94351187     19.85111       43.844401    
     75000   1.0127998      20.406963      43.610019    
     76000   0.99237103     19.872059      43.474023    
     77000   1.0301593      20.651815      43.196768    
     78000   1.0186168      20.521489      43.048324    
     79000   1.0493707      21.496249      43.047904    
     80000   1.0301124      20.541067      42.882269    
     81000   1.0533209      21.366813      42.537637    
     82000   1.0268087      20.130831      42.462335    
     83000   1.0621801      20.018143      42.210052    
     84000   1.0040638      20.661889      42.280499    
     85000   1.029655       20.190287      42.156263    
     86000   0.9858767      20.360326      41.979816    
     87000   0.98187318     20.491511      41.905609    
     88000   1.0053646      20.087644      41.565165    
     89000   1.0371781      20.152378      41.38684     
     90000   1.0142694      19.844141      41.187512    
     91000   1.0168352      21.19825       41.086679    
     92000   0.95706986     20.999734      40.99402     
     93000   0.9731318      21.302832      40.651244    
     94000   0.92426801     20.146863      40.546985    
     95000   1.0382449      20.679121      40.540459    
     96000   0.97919581     20.007328      40.598743    
     97000   1.0130065      20.841016      40.442816    
     98000   0.97163783     20.483279      40.443273    
     99000   0.98883354     20.662674      40.325658    
    100000   1.0151274      20.822791      40.091367    
Loop time of 247.194 on 2 procs for 100000 steps with 501 atoms

Performance: 349523.418 tau/day, 404.541 timesteps/s
102.4% CPU use with 1 MPI tasks x 2 OpenMP threads

MPI task timing breakdown:
Section |  min time  |  avg time  |  max time  |%varavg| %total
---------------------------------------------------------------
Pair    | 0.62955    | 0.62955    | 0.62955    |   0.0 |  0.25
Bond    | 1.1552     | 1.1552     | 1.1552     |   0.0 |  0.47
Neigh   | 242.49     | 242.49     | 242.49     |   0.0 | 98.10
Comm    | 0.020768   | 0.020768   | 0.020768   |   0.0 |  0.01
Output  | 0.23662    | 0.23662    | 0.23662    |   0.0 |  0.10
Modify  | 2.5002     | 2.5002     | 2.5002     |   0.0 |  1.01
Other   |            | 0.1624     |            |       |  0.07

Nlocal:            501 ave         501 max         501 min
Histogram: 1 0 0 0 0 0 0 0 0 0
Nghost:              0 ave           0 max           0 min
Histogram: 1 0 0 0 0 0 0 0 0 0
Neighs:           3567 ave        3567 max        3567 min
Histogram: 1 0 0 0 0 0 0 0 0 0

Total # of neighbors = 3567
Ave neighs/atom = 7.1197605
Ave special neighs/atom = 1.996008
Neighbor list builds = 1074
Dangerous builds = 0

# Replace lj potential, now collapse
pair_style      lj/cut 3

# Cutoff simul when gyration under 7
# Variable created with equal requires v_ + 'name'
fix 3 all halt 1000 v_rog < 7

run 5000000
Generated 0 of 0 mixed pair_coeff terms from geometric mixing rule
Last active /omp style is angle_style cosine/omp
Per MPI rank memory allocation (min/avg/max) = 1861 | 1861 | 1861 Mbytes
   Step          Temp         Enthalpy         c_1      
    100000   1.0151274      20.070406      40.091367    
    101000   1.0323316      19.307289      39.871961    
    102000   0.95718825     19.725137      39.72142     
    103000   0.94909217     19.761381      39.412558    
    104000   0.97983267     20.103043      39.086369    
    105000   1.0781496      18.621902      38.702576    
    106000   0.99538372     18.696688      38.206132    
    107000   1.0041219      19.33429       37.986848    
    108000   0.95746581     18.812734      37.919981    
    109000   1.0357807      19.913582      37.734222    
    110000   1.0228026      19.230386      37.355428    
    111000   1.0445164      18.823921      37.110956    
    112000   1.0255525      18.97844       37.03466     
    113000   1.0085092      19.346806      37.160347    
    114000   0.98956275     19.025731      37.158053    
    115000   0.93996147     18.141947      36.968456    
    116000   1.021179       18.293476      36.823411    
    117000   0.98728031     19.433922      36.683141    
    118000   0.98561249     18.782469      36.626059    
    119000   1.0547878      19.037278      36.363209    
    120000   0.94780061     19.069534      36.095286    
    121000   0.96726264     18.845836      35.829377    
    122000   1.0599199      19.512805      35.696009    
    123000   1.0576634      19.3165        35.399126    
    124000   0.98406721     19.00462       35.065296    
    125000   1.0122678      19.467069      34.693335    
    126000   0.93834945     18.533619      34.231668    
    127000   1.0400268      18.381249      34.000153    
    128000   1.0251799      19.205827      33.565392    
    129000   0.99111683     18.261302      33.36845     
    130000   0.95109434     18.926061      33.042705    
    131000   1.016463       18.527105      32.758177    
    132000   0.97343884     18.245621      32.513061    
    133000   0.9724628      19.371554      32.006002    
    134000   1.0294537      18.831132      31.786885    
    135000   0.97424996     19.208926      31.540671    
    136000   0.96540632     19.353376      31.464362    
    137000   1.0347909      18.182045      31.188641    
    138000   1.0353327      19.002451      31.023954    
    139000   1.0527312      19.774902      30.904655    
    140000   1.0244186      18.91683       30.243716    
    141000   1.0255438      18.699272      29.981166    
    142000   1.0279836      18.930295      29.996334    
    143000   0.93187182     18.75662       29.891557    
    144000   0.96443279     18.683708      29.748473    
    145000   0.94091145     17.638537      29.693381    
    146000   0.9806268      18.602818      29.713779    
    147000   0.97744772     19.401837      29.581244    
    148000   0.96465106     18.431568      29.198185    
    149000   1.0372895      18.506297      29.123421    
    150000   1.0384768      19.326883      29.126425    
    151000   1.001857       18.845936      28.85208     
    152000   0.96325119     18.63123       28.589689    
    153000   1.092141       19.248254      28.456193    
    154000   0.98614091     18.581103      28.255816    
    155000   1.0827119      18.624086      27.914968    
    156000   0.9948849      18.977136      27.501538    
    157000   0.96134518     18.206584      27.245781    
    158000   0.97179822     18.405325      26.686696    
    159000   0.97646611     18.722935      26.733722    
    160000   1.0224365      18.217713      26.597298    
    161000   1.0479764      17.953254      26.461593    
    162000   0.99174904     18.414295      26.500969    
    163000   1.0089642      17.893965      26.222933    
    164000   1.0331277      18.417796      25.645759    
    165000   1.0428795      18.735184      25.245979    
    166000   1.056993       18.386373      24.89559     
    167000   0.95405411     17.614352      24.884861    
    168000   0.95904867     18.208454      24.544853    
    169000   1.0507307      19.314611      24.281332    
    170000   0.94825439     18.277035      24.104898    
    171000   0.98279509     18.390954      24.114576    
    172000   0.91657136     17.608116      24.080966    
    173000   0.98678479     18.844215      23.87698     
    174000   0.98378041     18.806402      23.953467    
    175000   0.97782495     19.257084      23.911339    
    176000   0.97741729     18.663981      23.445701    
    177000   1.0472414      18.567107      23.284706    
    178000   1.0114879      18.705084      23.26803     
    179000   1.0663853      18.24111       23.173206    
    180000   0.99947276     18.444013      22.692966    
    181000   1.0138473      18.214829      22.498528    
    182000   1.031359       18.476622      22.307556    
    183000   0.97941483     17.917123      22.206962    
    184000   1.0097234      18.395378      21.578761    
    185000   0.98286429     18.187663      20.903122    
    186000   1.0389615      19.746421      20.873312    
    187000   1.0343965      17.707663      20.397444    
    188000   1.0193992      18.541314      20.062861    
    189000   0.97456917     18.592268      19.937868    
    190000   1.0243685      18.928485      19.686645    
    191000   1.0371722      19.25067       19.19252     
    192000   0.98808098     18.669636      18.834534    
    193000   1.0033898      18.240896      18.270918    
    194000   1.0435835      18.102435      17.972982    
    195000   1.0202521      18.22106       17.656364    
    196000   1.008019       17.760107      17.093491    
    197000   0.95534        18.375983      16.631865    
    198000   0.94771215     17.490053      16.309769    
    199000   0.99442533     18.144566      15.774974    
    200000   1.0473908      18.075556      15.414517    
    201000   1.041802       18.643681      15.403019    
    202000   0.96841421     17.500179      14.959921    
    203000   0.93375662     18.337774      14.886619    
    204000   1.1015423      17.997718      14.777941    
    205000   1.0288237      18.684613      14.614366    
    206000   0.92027462     17.6252        14.234982    
    207000   1.0031031      18.363823      14.038995    
    208000   0.98829401     17.787452      13.796509    
    209000   1.0311539      17.875817      13.70998     
    210000   1.0117246      18.421208      13.593787    
    211000   0.93427131     17.393568      13.201698    
    212000   1.0085933      18.44278       13.187836    
    213000   0.94280945     17.957608      13.090609    
    214000   0.9436481      17.407538      12.647308    
    215000   1.0176132      18.26085       12.296626    
    216000   0.98030067     17.217088      11.982955    
    217000   0.99758594     17.940917      11.739247    
    218000   0.98314204     18.461548      11.57858     
    219000   0.97339968     17.963         11.509938    
    220000   1.0266598      17.878889      11.507953    
    221000   0.98311663     19.008141      11.210633    
    222000   1.0272901      18.77868       11.066534    
    223000   1.0198101      17.866352      11.09821     
    224000   0.93551818     18.420116      10.790225    
    225000   0.98133382     18.048145      10.399499    
    226000   0.97806604     17.330404      9.8800852    
    227000   0.98971124     17.70538       9.3939562    
    228000   0.97150517     17.934987      9.0491214    
    229000   0.99414445     17.739961      8.722641     
    230000   0.97750391     16.972441      8.7472988    
    231000   0.9961267      17.911004      8.4297825    
    232000   1.0235258      17.643864      8.2259223    
    233000   0.92429111     17.622818      7.8112991    
    234000   1.0075445      17.63204       7.5242626    
    235000   1.0581113      16.726467      7.3198911    
    236000   0.98930466     18.094823      7.0008974    
Fix halt condition for fix-id 3 met on step 237000 with value 6.619037165734813 (src/fix_halt.cpp:237)
    237000   1.0188306      17.301918      6.6190372    
Loop time of 147.511 on 2 procs for 137000 steps with 501 atoms

Performance: 802432.630 tau/day, 928.741 timesteps/s
112.4% CPU use with 1 MPI tasks x 2 OpenMP threads

MPI task timing breakdown:
Section |  min time  |  avg time  |  max time  |%varavg| %total
---------------------------------------------------------------
Pair    | 10.554     | 10.554     | 10.554     |   0.0 |  7.15
Bond    | 1.7772     | 1.7772     | 1.7772     |   0.0 |  1.20
Neigh   | 130.75     | 130.75     | 130.75     |   0.0 | 88.64
Comm    | 0.035284   | 0.035284   | 0.035284   |   0.0 |  0.02
Output  | 0.35676    | 0.35676    | 0.35676    |   0.0 |  0.24
Modify  | 3.7607     | 3.7607     | 3.7607     |   0.0 |  2.55
Other   |            | 0.2803     |            |       |  0.19

Nlocal:            501 ave         501 max         501 min
Histogram: 1 0 0 0 0 0 0 0 0 0
Nghost:              0 ave           0 max           0 min
Histogram: 1 0 0 0 0 0 0 0 0 0
Neighs:          54647 ave       54647 max       54647 min
Histogram: 1 0 0 0 0 0 0 0 0 0

Total # of neighbors = 54647
Ave neighs/atom = 109.07585
Ave special neighs/atom = 1.996008
Neighbor list builds = 1268
Dangerous builds = 0

# This simulation is done
# Move onto the next one
clear
  using 2 OpenMP thread(s) per MPI task
package omp 0
using multi-threaded neighbor list subroutines
next f
jump SELF

###
# Reference paper:
# K. Kremer and G. S. Grest
# Dynamics of entangled linear polymer melts: A molecular-dynamics simulation
# J Chem Phys 92, 5057 (1990)

##################################
# MIHIR: for branched polymers
# LJ minimum first to expand and explore, then collapse
###

###
# Looping through the various N1B4 polymers to simulate,
# define variables to switch through
variable f index bb51nuc1bl25bn4d30tot100V2 bb101nuc1bl50bn4d30tot200V2 bb151nuc1bl75bn4d30tot300V2 bb201nuc1bl100bn4d30tot400V2 bb251nuc1bl125bn4d30tot500V2 bb301nuc1bl150bn4d30tot600V2 bb351nuc1bl175bn4d30tot700V2 bb401nuc1bl200bn4d30tot800V2 bb451nuc1bl225bn4d30tot900V2 bb501nuc1bl250bn4d30tot1000V2 bb551nuc1bl275bn4d30tot1100V2 bb601nuc1bl300bn4d30tot1200V2
# variable f index bb51nuc1bl25bn4d30tot100 bb101nuc1bl50bn4d30tot200 bb151nuc1bl75bn4d30tot300 bb201nuc1bl100bn4d30tot400 bb251nuc1bl125bn4d30tot500 bb301nuc1bl150bn4d30tot600 bb351nuc1bl175bn4d30tot700 bb401nuc1bl200bn4d30tot800 bb451nuc1bl225bn4d30tot900 bb501nuc1bl250bn4d30tot1000 bb551nuc1bl275bn4d30tot1100 bb601nuc1bl300bn4d30tot1200
###


###
# Box and units  (use LJ units and periodic boundaries)
###

units lj
log N1B4/trial2/logs/$f.log
log N1B4/trial2/logs/bb301nuc1bl150bn4d30tot600V2.log
