#atom_style bond #no stiffness
atom_style angle #with stiffness

boundary        p p p
###
# Pair interactions require lists of neighbours to be calculated
###

#neighbor 0.3 bin
neighbor 4 bin

neigh_modify every 1 delay 1 check yes
atom_modify sort 0 0
### Generate RESTART file, SPECIAL format, not a .txt file ###
### Useful if simulation crashes ###

restart 1000000 N1B4/trial2/restarts/$f.restart
restart 1000000 N1B4/trial2/restarts/bb451nuc1bl225bn4d30tot900V2.restart
#############################



### READ "start" data file ###

read_data N1B4/trial2/dats2/$f.dat
read_data N1B4/trial2/dats2/bb451nuc1bl225bn4d30tot900V2.dat
Reading data file ...
  orthogonal box = (-1000 -1000 -1000) to (1000 1000 1000)
  1 by 1 by 1 MPI processor grid
  reading atoms ...
  901 atoms
  scanning bonds ...
  3 = max bonds/atom
  scanning angles ...
  6 = max angles/atom
  reading bonds ...
  900 bonds
  reading angles ...
  902 angles
Finding 1-2 1-3 1-4 neighbors ...
  special bond factors lj:    0        0        0       
  special bond factors coul:  0        0        0       
     4 = max # of 1-2 neighbors
     4 = max # of 1-3 neighbors
     8 = max # of 1-4 neighbors
    12 = max # of special neighbors
  special bonds CPU = 0.003 seconds
  read_data CPU = 0.165 seconds

######################

### READ "REstart" data file ###

######################



###
# Define groups (atom type 1 is group 'all')
###
group all type 1
901 atoms in group all


###
# Dump configs - "simple dumpings"
###

###
# Dump configs + box coords
###

dump   1   all   custom   1000  N1B4/trial2/trjs/$f.lammpstrj  id  x y z  ix iy iz
dump   1   all   custom   1000  N1B4/trial2/trjs/bb451nuc1bl225bn4d30tot900V2.lammpstrj  id  x y z  ix iy iz
dump_modify   1   format line "%d %.5f %.5f %.5f %d %d %d"

########################################################################


###################################################################
# Stiffness term
#
# E = K * (1+cos(theta)), K>0
#
angle_style   cosine
#change this coefficient to change stiffness (e.g. 1,5,10)
angle_coeff   1 1.0
###################################################################

###################################################################
# Pair interaction between non-bonded atoms
#
#  Lennard-Jones 12-6 potential with cutoff:
#  potential E=4epsilon[ (sigma/r)^12 - (sigma/r)^6]  for r<r_cut
#
#  1.12246 = 2^(1/6) is the minimum of the potential


pair_style      lj/cut 1.12246152962189
#pair_style      lj/cut 3

#
#  pair_modify shift yes adds a constant to the potential such

#  that E(r_cut)=0. Forces remains unchanged.
#

pair_modify     shift yes

#
#  pair_coeff for lj/cut, specify 4:
#    * atom type interacting with
#    * atom type
#    * epsilon (energy units)
#    * sigma (distance units)
#

pair_coeff      1 1 1.0 1.0
###################################################################

###################################################################
# Pair interaction between non-bonded atoms
#
#  soft potential, for PUSHING apart overlapping atoms
#  potential E=A*(1 + cos(pi*r/r_c))
#
#  1.12246 = 2^(1/6) is the cut-off r_c

#pair_style     soft 1.12246152962189

#
#  pair_coeff for soft, specify 3:
#    * atom type interacting with
#    * atom type
#    * A
#
#

#pair_coeff      1 1 100.0
###################################################################

###################################################################
# Pair interaction between bonded atoms
#
# Fene potential + Lennard Jones 12-6:

#
#  E= - 0.5 K R0^2 ln[ 1- (r/R0)^2]
#     + 4epsilon[ (sigma/r)^12 - (sigma/r)^6] + epsilon
#

bond_style   fene


#
# For style fene, specify:
#   * bond type
#   * K (energy/distance^2)
#   * R0 (distance)
#   * epsilon (energy)  (LJ component)
#   * sigma (distance)  (LJ component)
#


special_bonds fene #<=== I M P O R T A N T (new command)
Finding 1-2 1-3 1-4 neighbors ...
  special bond factors lj:    0        1        1       
  special bond factors coul:  0        1        1       
     4 = max # of 1-2 neighbors
    12 = max # of special neighbors
  special bonds CPU = 0.001 seconds

bond_coeff   1   30   2   1.0   1.0


###################################################

###################################################################
# Pair interaction between bonded atoms
#
# Harmonic potential:
#
#  E= K * (R-R0)^2
#

#bond_style   harmonic

#
# For style harmonic, specify:
#   * bond type
#   * K (energy/distance^2)
#   * R0 (distance)
#

#bond_coeff   1   60.0   1.0
#bond_coeff   2   harmonic 0.1   1.0

###################################################
compute 1 all gyration
variable rog equal c_1
#compute 2 all coord/atom cutoff 1.1

#dump 2 all custom 10000 contact_number.dump id c_2


###
# Set up fixes
###
thermo_style   custom   step  temp enthalpy c_1
fix 1 all nve   ###NVE ensemble

fix 2 all   langevin   1.0 1.0 1.0  778655   ###Langevin integrator Tstart Tstop 1/friction rndseed


##### Sample thermodynamic info  (temperature, energy, pressure, etc.) #####
thermo 1000









############################################################################

###
# set timestep of integrator

timestep 0.01

###
# run integration for a number of steps
###
#run 0
#variable r equal c_1
#if "$r < 63.1" then "quit 1"

# lj potential minimum, cause molecule to explore
run 100000
Generated 0 of 0 mixed pair_coeff terms from geometric mixing rule
Last active /omp style is angle_style cosine/omp
Neighbor list info ...
  update: every = 1 steps, delay = 1 steps, check = yes
  max neighbors/atom: 2000, page size: 100000
  master list distance cutoff = 5.1224615
  ghost atom cutoff = 5.1224615
  binsize = 2.5612308, bins = 781 781 781
  1 neighbor lists, perpetual/occasional/extra = 1 0 0
  (1) pair lj/cut/omp, perpetual
      attributes: half, newton on, omp
      pair build: half/bin/newton/omp
      stencil: half/bin/3d
      bin: standard
WARNING: Communication cutoff 5.12246152962189 is shorter than a bond length based estimate of 5.455. This may lead to errors. (src/comm.cpp:723)
Per MPI rank memory allocation (min/avg/max) = 1862 | 1862 | 1862 Mbytes
   Step          Temp         Enthalpy         c_1      
         0   0              13.248141      118.29536    
      1000   0.93281813     17.350778      117.63762    
      2000   0.99958373     18.33785       117.00306    
      3000   1.0379279      18.692617      116.35757    
      4000   1.0644325      18.142713      115.84694    
      5000   0.97364839     17.923414      115.32345    
      6000   0.98702025     18.295663      114.80398    
      7000   1.0097969      18.535174      114.14932    
      8000   1.0315048      18.644198      113.79134    
      9000   0.97806446     18.630159      113.3051     
     10000   1.0059262      18.375814      112.60713    
     11000   0.98782561     19.255949      112.12982    
     12000   1.062514       19.222738      111.88428    
     13000   1.0129181      19.186258      111.56433    
     14000   0.992632       18.789134      111.2589     
     15000   0.96872881     18.845716      111.10661    
     16000   0.98682363     18.989569      110.69902    
     17000   1.0196339      18.80801       110.29619    
     18000   1.0201336      19.096015      109.74962    
     19000   1.0014063      18.904428      109.36192    
     20000   0.99318964     19.236699      108.88633    
     21000   1.0150802      19.970486      108.47655    
     22000   0.95767982     19.860654      108.03779    
     23000   0.99661352     18.928648      107.75567    
     24000   0.99918716     19.489936      107.36638    
     25000   0.99638241     19.477617      107.24939    
     26000   1.0229623      19.194654      107.02972    
     27000   1.0396782      19.361915      106.63661    
     28000   1.0060425      19.772071      106.39918    
     29000   0.95653838     19.481605      106.12817    
     30000   0.97232276     19.23195       105.71112    
     31000   1.0099296      19.349243      105.32973    
     32000   0.99019312     19.779238      105.01905    
     33000   1.0135019      19.668204      104.442      
     34000   0.96831069     19.513026      104.15138    
     35000   1.0306287      19.530359      103.8572     
     36000   1.0142287      19.915263      103.62469    
     37000   0.94623824     19.965515      103.16207    
     38000   1.0038557      19.623667      102.69905    
     39000   1.0272859      19.440415      102.58444    
     40000   0.96265428     19.357209      102.58719    
     41000   1.0051113      19.46839       102.44107    
     42000   1.0226668      20.025508      102.43383    
     43000   1.0108629      19.718483      102.20082    
     44000   0.98661651     19.673278      102.25378    
     45000   1.0118612      19.665929      102.11454    
     46000   0.98549161     19.612076      101.67828    
     47000   1.0395865      20.222846      101.51112    
     48000   0.99132183     19.608526      101.1325     
     49000   1.0082684      20.136839      100.89654    
     50000   1.0035839      19.148337      100.55533    
     51000   1.057502       19.879065      100.0911     
     52000   1.0204574      19.988085      99.839461    
     53000   0.96813477     19.062107      99.633222    
     54000   0.99549424     19.792737      99.286467    
     55000   0.96712267     19.488084      99.000725    
     56000   0.99355312     20.858475      98.979239    
     57000   1.0075321      19.468087      98.727831    
     58000   0.97905223     19.849216      98.347394    
     59000   1.0190262      19.805877      98.26461     
     60000   1.0094545      20.334021      98.133565    
     61000   0.99837618     19.854265      98.030673    
     62000   0.9761053      19.925484      97.978424    
     63000   1.0280889      20.144457      97.790937    
     64000   0.96345431     19.604264      97.595534    
     65000   0.98567053     20.197851      97.487196    
     66000   1.0517108      20.246385      97.308338    
     67000   0.9923412      19.810588      97.142818    
     68000   0.98504318     19.824783      97.07493     
     69000   1.0070275      19.78637       96.797452    
     70000   0.98453031     20.226052      96.614873    
     71000   0.99033883     20.275797      96.406823    
     72000   1.0248894      19.606442      96.228235    
     73000   0.99736998     20.353119      96.20426     
     74000   0.99553541     20.140327      96.185909    
     75000   1.0347862      20.013145      95.850065    
     76000   1.028609       19.753393      95.712526    
     77000   1.0569803      19.772203      95.550942    
     78000   1.0053816      20.146071      95.382196    
     79000   1.0357338      20.086634      95.397676    
     80000   0.98639245     19.693653      95.242621    
     81000   0.97767942     19.803212      94.904292    
     82000   1.0379016      19.996377      94.532271    
     83000   0.9420432      19.75992       94.193258    
     84000   0.9993401      20.279689      93.813279    
     85000   1.052148       20.348594      93.762431    
     86000   0.95400388     20.01201       93.602755    
     87000   1.0489773      20.161569      93.659224    
     88000   0.96632611     20.555886      93.608653    
     89000   1.0461248      20.28332       93.576788    
     90000   1.0067598      20.011026      93.646716    
     91000   0.98752173     19.860992      93.62531     
     92000   0.9850258      19.403632      93.33149     
     93000   0.9910419      20.011213      93.102546    
     94000   0.98063384     19.876933      92.923249    
     95000   0.98517722     20.260389      92.769939    
     96000   0.99540501     20.313546      92.806991    
     97000   1.0159574      20.189893      92.697649    
     98000   1.0079663      19.85072       92.851929    
     99000   0.95073731     20.237723      93.050872    
    100000   0.96885165     19.586342      93.219857    
Loop time of 313.316 on 2 procs for 100000 steps with 901 atoms

Performance: 275760.176 tau/day, 319.167 timesteps/s
102.9% CPU use with 1 MPI tasks x 2 OpenMP threads

MPI task timing breakdown:
Section |  min time  |  avg time  |  max time  |%varavg| %total
---------------------------------------------------------------
Pair    | 1.0093     | 1.0093     | 1.0093     |   0.0 |  0.32
Bond    | 2.067      | 2.067      | 2.067      |   0.0 |  0.66
Neigh   | 305.15     | 305.15     | 305.15     |   0.0 | 97.39
Comm    | 0.0403     | 0.0403     | 0.0403     |   0.0 |  0.01
Output  | 0.30077    | 0.30077    | 0.30077    |   0.0 |  0.10
Modify  | 4.4581     | 4.4581     | 4.4581     |   0.0 |  1.42
Other   |            | 0.2925     |            |       |  0.09

Nlocal:            901 ave         901 max         901 min
Histogram: 1 0 0 0 0 0 0 0 0 0
Nghost:              0 ave           0 max           0 min
Histogram: 1 0 0 0 0 0 0 0 0 0
Neighs:           5173 ave        5173 max        5173 min
Histogram: 1 0 0 0 0 0 0 0 0 0

Total # of neighbors = 5173
Ave neighs/atom = 5.7413984
Ave special neighs/atom = 1.9977802
Neighbor list builds = 1090
Dangerous builds = 0

# Replace lj potential, now collapse
pair_style      lj/cut 3

# Cutoff simul when gyration under 7
# Variable created with equal requires v_ + 'name'
fix 3 all halt 1000 v_rog < 7

run 5000000
Generated 0 of 0 mixed pair_coeff terms from geometric mixing rule
Last active /omp style is angle_style cosine/omp
Per MPI rank memory allocation (min/avg/max) = 1862 | 1862 | 1862 Mbytes
   Step          Temp         Enthalpy         c_1      
    100000   0.96885165     18.994375      93.219857    
    101000   0.98633187     19.586217      92.756996    
    102000   0.97334407     19.082202      92.531448    
    103000   0.98581425     19.5284        92.663721    
    104000   1.002675       19.104374      92.261714    
    105000   1.0231705      19.92756       91.753922    
    106000   0.99055856     19.50474       91.500456    
    107000   0.97946953     19.741801      91.313673    
    108000   0.96496436     19.079097      91.030527    
    109000   1.0697976      19.62113       90.894113    
    110000   1.0003604      19.712245      90.716334    
    111000   1.0371061      19.759304      90.326394    
    112000   1.0054992      19.673263      90.225513    
    113000   0.98118687     19.225207      89.902028    
    114000   1.0113948      19.506137      89.675462    
    115000   0.99592106     19.522799      89.693498    
    116000   1.0174904      19.390327      89.475681    
    117000   0.98525743     19.397693      89.251827    
    118000   1.0082701      19.205488      89.098131    
    119000   1.0132118      19.390626      88.981789    
    120000   1.0133959      19.640314      88.787768    
    121000   1.0720255      19.194623      88.657634    
    122000   1.0095115      19.645166      88.643456    
    123000   0.99548107     19.279458      88.529911    
    124000   0.98541802     19.348562      88.445332    
    125000   1.0609842      19.370406      88.382817    
    126000   1.0181289      19.132494      88.205312    
    127000   1.0295917      19.475873      88.044756    
    128000   1.0272263      19.293088      87.612274    
    129000   0.96225503     18.863576      87.5995      
    130000   1.0127251      19.192677      87.299313    
    131000   0.96056002     18.919686      86.866918    
    132000   1.0344038      18.926146      86.59549     
    133000   0.99617763     19.729066      86.30525     
    134000   0.96466698     19.420234      86.110529    
    135000   0.97492866     18.514276      85.824103    
    136000   1.0467196      19.235956      85.49058     
    137000   1.0456459      19.215439      85.627105    
    138000   0.96164898     19.222911      85.616957    
    139000   0.96701657     19.491674      85.32879     
    140000   1.0029689      18.848698      85.170862    
    141000   0.9884007      18.907018      84.978513    
    142000   0.9816522      19.459805      84.449311    
    143000   0.99044529     19.575456      84.18651     
    144000   1.0059323      19.167125      84.02319     
    145000   1.0253524      19.480088      83.747855    
    146000   0.96697188     19.302146      83.425938    
    147000   0.9913539      19.579991      83.221259    
    148000   0.99252763     19.215827      83.051321    
    149000   0.99795234     19.153603      82.975748    
    150000   0.99728388     19.075998      82.834992    
    151000   0.99328343     19.504071      82.558543    
    152000   1.0285257      19.026399      82.268708    
    153000   0.98374675     19.094833      82.263954    
    154000   1.0381695      19.088915      82.216302    
    155000   0.94943996     19.59777       82.074014    
    156000   1.0133887      19.254217      82.005927    
    157000   0.99908048     19.33939       81.727962    
    158000   1.0022618      18.991781      81.221181    
    159000   1.0111957      19.271948      80.971211    
    160000   0.973975       18.98861       80.766458    
    161000   0.99960508     19.247003      80.728075    
    162000   1.0307467      18.671308      80.653758    
    163000   1.0159536      18.227924      80.407366    
    164000   0.98466144     19.252395      80.269366    
    165000   0.99727185     18.856813      80.083536    
    166000   0.95549833     18.571008      79.927284    
    167000   1.0140665      18.943222      79.846653    
    168000   1.0120975      19.449065      79.654111    
    169000   1.0482819      19.557813      79.288162    
    170000   1.073349       18.956634      79.111268    
    171000   0.96109753     18.888917      79.200942    
    172000   0.98247358     19.409176      79.065861    
    173000   0.99537561     18.89888       78.915862    
    174000   0.99817774     18.965376      78.696715    
    175000   0.97365604     19.314832      78.627555    
    176000   0.98529009     19.398115      78.408941    
    177000   1.0237741      19.125035      78.386083    
    178000   1.0071317      18.747807      78.143408    
    179000   1.0161191      18.51135       78.132535    
    180000   1.0041573      19.044545      77.730144    
    181000   1.0099811      18.407827      77.594901    
    182000   1.0148645      19.433102      77.26357     
    183000   1.01198        19.359114      77.076001    
    184000   0.98794679     18.628288      76.827567    
    185000   0.99744943     19.246036      76.820872    
    186000   1.0051236      18.597433      76.671578    
    187000   1.0205512      19.051397      76.686741    
    188000   1.0133139      18.292947      76.582364    
    189000   1.0325633      18.946318      76.732619    
    190000   1.0087105      19.27          76.483771    
    191000   0.9805713      19.339562      76.170097    
    192000   0.97437652     18.660038      76.28236     
    193000   0.99564774     18.715086      76.316199    
    194000   0.94766094     19.319642      76.042041    
    195000   1.006922       19.018927      75.904693    
    196000   0.98291058     18.645418      75.747306    
    197000   1.0020928      18.948752      75.511577    
    198000   1.0559933      19.368612      75.284246    
    199000   1.0180173      18.697567      74.875584    
    200000   0.98493497     18.581758      74.599169    
    201000   0.99272607     18.659667      74.590019    
    202000   0.97977692     18.33303       74.495825    
    203000   0.9976565      19.406198      74.148314    
    204000   0.98353037     19.052882      73.892774    
    205000   1.0278544      19.92202       73.678636    
    206000   1.0350151      18.994864      73.42829     
    207000   0.99380515     18.836651      73.215307    
    208000   1.0393489      19.402583      73.269327    
    209000   0.99345379     18.287479      72.784544    
    210000   0.98266197     19.168854      72.800276    
    211000   1.0180442      19.195681      72.811251    
    212000   1.0092136      18.794665      72.615028    
    213000   1.0030199      19.079837      72.339336    
    214000   1.0333445      19.222145      72.069487    
    215000   0.95849822     18.558732      71.817999    
    216000   0.9724372      18.431025      71.610244    
    217000   1.0173223      18.836163      71.38909     
    218000   0.96824868     18.82951       71.264123    
    219000   1.0388056      18.917841      71.150427    
    220000   0.98033626     18.595046      70.723552    
    221000   1.0167439      18.623826      70.769917    
    222000   1.0314578      18.156028      70.624914    
    223000   0.95432889     18.615324      70.314233    
    224000   0.97103201     18.970889      70.206909    
    225000   1.0201451      18.58931       70.226879    
    226000   1.023014       18.956046      70.076509    
    227000   1.0322191      18.435488      69.848226    
    228000   1.0325728      18.739018      69.475446    
    229000   1.000581       18.855698      69.246992    
    230000   1.025626       19.32584       69.12867     
    231000   1.028101       18.892941      69.352619    
    232000   1.0351004      18.681592      69.195391    
    233000   1.0020866      19.315808      69.059626    
    234000   0.94964164     18.59257       68.662836    
    235000   1.012268       18.878499      68.537699    
    236000   1.0296039      18.953267      68.359021    
    237000   1.0246704      18.353268      68.413172    
    238000   1.0125606      18.545969      68.182687    
    239000   1.0403145      18.768137      67.816715    
    240000   0.96181138     18.81591       67.669663    
    241000   0.98613725     18.364863      67.507744    
    242000   1.0385323      18.855217      67.59294     
    243000   1.0160277      19.131885      67.589634    
    244000   1.0664488      19.221849      67.059684    
    245000   1.0419312      18.934185      66.787763    
    246000   0.99872551     18.671789      66.64076     
    247000   1.0037638      18.979341      66.709803    
    248000   0.99519087     18.58408       66.547043    
    249000   0.96694767     18.961009      66.35288     
    250000   0.94493002     18.728366      66.183983    
    251000   1.0179736      19.104018      66.261277    
    252000   0.98753714     19.002511      66.215535    
    253000   1.0364185      18.905883      66.160938    
    254000   0.97058455     18.73445       66.024084    
    255000   0.99872094     18.821004      65.902885    
    256000   1.0191091      18.637705      65.641724    
    257000   0.97362725     19.040554      65.518815    
    258000   0.97921709     18.774386      65.539635    
    259000   0.98003666     18.671219      65.203712    
    260000   0.98769378     18.564063      65.108512    
    261000   0.99373499     18.540383      65.188415    
    262000   1.0127339      18.854085      65.129569    
    263000   1.017736       18.744064      65.253723    
    264000   0.99184466     18.221947      65.237955    
    265000   1.014418       18.951185      65.494411    
    266000   0.96616888     18.677592      65.263932    
    267000   1.0478235      18.694966      64.977144    
    268000   1.0544412      18.675171      64.838086    
    269000   1.032606       18.599771      65.055095    
    270000   1.009002       18.886418      64.997879    
    271000   0.98046006     18.329071      64.888256    
    272000   1.0644462      19.148321      64.765755    
    273000   1.0531951      18.711642      64.567262    
    274000   1.0231049      18.32843       64.363707    
    275000   1.0077281      18.883171      64.078929    
    276000   1.0156211      19.18876       64.027294    
    277000   1.0025453      18.64625       63.826415    
    278000   0.99655251     18.584273      63.556923    
    279000   1.016222       18.386516      63.427432    
    280000   0.94526515     18.834431      63.388304    
    281000   0.96976381     18.688025      63.507105    
    282000   0.99479504     18.999959      63.459992    
    283000   0.96399004     18.566901      63.138708    
    284000   1.0268126      19.261586      63.058296    
    285000   1.0023392      18.869702      62.783201    
    286000   1.002206       18.611609      62.543259    
    287000   1.0211152      18.809768      62.421149    
    288000   1.0474218      18.416808      62.197533    
    289000   1.0402624      18.500901      61.870534    
    290000   1.0046213      18.682419      61.946749    
    291000   0.97818559     18.69155       61.733871    
    292000   0.99997544     18.828834      61.593401    
    293000   1.0075288      18.752865      61.786833    
    294000   1.0278098      17.999684      61.904242    
    295000   0.99796538     18.662542      61.697667    
    296000   0.97390158     17.980664      61.595291    
    297000   0.99788606     18.722252      61.609494    
    298000   1.0327537      19.328525      61.50415     
    299000   0.98357154     18.976195      61.357113    
    300000   1.0141154      18.572927      61.372908    
    301000   1.0294264      18.417368      61.020709    
    302000   1.0519946      18.757788      60.819826    
    303000   0.98413563     18.29924       60.74494     
    304000   0.99810823     18.914964      60.45679     
    305000   1.0421344      18.87199       60.323802    
    306000   1.02349        18.514072      59.955962    
    307000   1.052439       18.603793      59.644794    
    308000   1.0226648      18.809114      59.364389    
    309000   1.0190736      18.363945      59.059977    
    310000   0.98032946     18.20453       58.829295    
    311000   1.0342356      18.510517      58.699861    
    312000   0.97073149     18.877097      58.357876    
    313000   0.94953698     18.022327      58.187924    
    314000   1.0281348      18.826829      58.046408    
    315000   1.0093552      18.541185      57.86255     
    316000   1.0157995      18.316442      57.791207    
    317000   1.008981       17.948941      57.779159    
    318000   0.98085086     18.405167      57.607478    
    319000   0.99803585     18.214643      57.179332    
    320000   0.99114773     18.595703      57.139272    
    321000   0.9698151      18.550919      57.118265    
    322000   1.0012308      18.218977      57.051923    
    323000   0.91778946     18.683905      56.937317    
    324000   1.0117823      18.821289      56.928386    
    325000   0.97219468     18.675091      56.608134    
    326000   0.90151524     18.048318      56.244512    
    327000   0.96171961     18.724336      55.982055    
    328000   0.98822493     18.827518      55.91017     
    329000   0.96915813     18.334765      55.760973    
    330000   1.0032547      18.607284      55.729189    
    331000   1.0279439      18.507163      55.618702    
    332000   0.98639554     18.572821      55.478494    
    333000   0.9450346      18.594783      55.47452     
    334000   1.0090306      18.625662      55.511021    
    335000   1.1057132      18.700291      55.586316    
    336000   0.9872261      18.036829      55.445123    
    337000   0.98907001     18.366104      55.17125     
    338000   1.0333363      18.747359      54.947305    
    339000   0.97178551     18.4672        54.911153    
    340000   1.0032418      18.200187      54.513153    
    341000   0.98916725     18.020745      54.256839    
    342000   1.0323738      18.301283      54.158507    
    343000   1.0152783      18.360744      53.800064    
    344000   1.0185104      18.516704      53.507478    
    345000   1.0561361      18.056951      53.252012    
    346000   1.0232433      18.302991      53.050361    
    347000   0.9550791      18.571112      52.938179    
    348000   1.0206436      18.066145      52.75087     
    349000   1.0111199      18.212849      52.614439    
    350000   0.97577022     18.440747      52.573599    
    351000   1.0105535      18.116036      52.538122    
    352000   1.0262442      17.793451      52.139788    
    353000   0.9752427      17.854923      51.987639    
    354000   1.0325515      17.735562      51.919726    
    355000   1.0755283      18.587233      51.788884    
    356000   1.0120224      18.683683      51.576399    
    357000   0.97471629     18.721071      51.30103     
    358000   1.0411894      18.789354      51.181279    
    359000   0.99229695     17.806966      51.014323    
    360000   0.98249566     18.43905       50.8288      
    361000   0.99954602     17.742243      50.81831     
    362000   0.96472331     18.385408      50.687834    
    363000   1.0266579      18.963368      50.467823    
    364000   0.99465246     18.242219      50.398672    
    365000   0.9807185      18.213961      50.350507    
    366000   0.98086272     18.147812      50.002726    
    367000   0.95708617     18.532739      49.986629    
    368000   0.96405477     18.343793      49.526511    
    369000   0.9903776      18.184588      49.469193    
    370000   0.97862974     18.013153      49.361068    
    371000   1.0221324      18.721148      49.06023     
    372000   0.99583951     18.598484      48.589291    
    373000   1.0001462      18.901413      48.170793    
    374000   1.0158375      18.258755      48.143845    
    375000   0.99764367     17.789109      48.064853    
    376000   0.99673866     18.395922      48.098426    
    377000   0.99844078     18.557598      47.914678    
    378000   1.0118624      18.427884      47.768559    
    379000   1.0459272      18.055386      47.509584    
    380000   1.0167638      18.383409      47.456609    
    381000   0.97308353     17.819271      47.496288    
    382000   0.99651548     18.429537      47.417989    
    383000   0.96904045     17.867129      47.37944     
    384000   0.99349867     18.304226      47.096354    
    385000   0.9944057      17.885062      46.765956    
    386000   1.0122241      18.461745      46.82868     
    387000   0.97689289     17.709349      46.665141    
    388000   1.0025533      18.322783      46.284537    
    389000   1.0287584      18.150228      46.064497    
    390000   1.0104999      18.655026      45.930468    
    391000   1.0287801      17.899707      45.793844    
    392000   0.97609155     18.117214      45.872735    
    393000   0.99825188     18.002266      45.785368    
    394000   1.0406817      18.69909       45.271226    
    395000   1.0260252      18.45616       45.173579    
    396000   1.0036965      18.086429      45.088276    
    397000   1.0102137      18.509183      45.094731    
    398000   1.022528       17.96901       44.814186    
    399000   0.98953748     18.78071       44.791709    
    400000   1.0324919      17.830008      44.941799    
    401000   1.030144       18.555866      44.817796    
    402000   1.0117727      18.242149      44.692358    
    403000   0.94818373     18.125618      44.753171    
    404000   0.98085684     17.777438      44.723172    
    405000   1.046214       17.854564      44.49282     
    406000   0.96558637     18.164845      44.376235    
    407000   1.0368029      18.465972      44.241771    
    408000   0.98610633     17.643346      44.170953    
    409000   0.99989452     18.057973      44.019969    
    410000   0.98451539     18.159168      43.816715    
    411000   1.0237069      18.967186      43.738639    
    412000   0.97943014     18.016418      43.833826    
    413000   1.0217655      18.186629      43.75181     
    414000   1.0190055      17.607637      43.457886    
    415000   0.9966665      18.053564      43.273739    
    416000   0.99591902     18.17973       43.168758    
    417000   0.96682607     17.829172      42.833304    
    418000   1.0044354      18.229579      42.6633      
    419000   1.0136113      17.969514      42.330105    
    420000   1.0059092      18.201747      42.187023    
    421000   1.012515       18.082979      42.071107    
    422000   1.0458228      18.525409      41.710893    
    423000   1.0105995      18.243077      41.5311      
    424000   0.971452       18.316548      41.656429    
    425000   0.97196214     18.119441      41.450867    
    426000   0.95919222     17.852313      41.373905    
    427000   1.0241949      18.577608      41.12285     
    428000   1.0024572      18.310897      40.9897      
    429000   1.0228243      17.879466      40.942996    
    430000   1.0537279      17.76037       40.729417    
    431000   1.0172411      18.681329      40.592765    
    432000   0.98562105     18.079182      40.427502    
    433000   1.0058786      18.190965      40.223923    
    434000   0.99942145     17.847296      40.110289    
    435000   1.0037899      17.846885      39.847083    
    436000   1.046123       18.658695      39.799536    
    437000   0.96277763     18.349312      39.833478    
    438000   1.0526607      18.469403      39.645078    
    439000   1.0091387      18.712062      39.52625     
    440000   1.0300942      17.990382      39.417534    
    441000   1.0239774      18.278685      39.369852    
    442000   0.97442519     18.126663      38.999724    
    443000   1.0727371      18.385659      38.887424    
    444000   0.97405008     17.575628      38.651716    
    445000   1.0034254      18.435113      38.747727    
    446000   0.98647941     18.034385      38.700565    
    447000   1.0028382      17.971823      38.266099    
    448000   0.97605812     18.114838      38.33405     
    449000   1.0254419      17.951365      38.024506    
    450000   1.0206351      18.070168      38.07242     
    451000   0.97592619     18.34471       37.692529    
    452000   1.019946       18.476584      37.696066    
    453000   1.0314518      18.194462      37.495655    
    454000   1.0418392      17.832773      37.213868    
    455000   0.98505612     18.730106      37.150263    
    456000   0.96863475     18.537026      37.032949    
    457000   1.0151167      17.982659      36.932025    
    458000   1.0609473      18.358084      36.718624    
    459000   0.94858705     18.721311      36.532604    
    460000   1.008485       17.388426      36.721995    
    461000   1.0171584      18.408506      36.43612     
    462000   1.0208522      18.139062      36.104951    
    463000   1.0134155      18.383605      35.97692     
    464000   1.0046595      18.529538      35.930383    
    465000   0.97980553     18.13721       35.718131    
    466000   1.06282        17.327138      35.55883     
    467000   1.0377809      18.174128      35.307462    
    468000   1.0265227      17.779667      35.317958    
    469000   0.99010409     18.192891      35.202398    
    470000   0.98182186     17.99038       34.86148     
    471000   1.0291558      18.315324      34.542231    
    472000   1.0043948      17.771771      34.42354     
    473000   1.0433736      18.307656      34.170825    
    474000   1.0124176      18.131217      34.179934    
    475000   1.0100802      18.331808      34.184167    
    476000   0.98630461     18.006545      33.962979    
    477000   0.98173966     18.399583      33.817188    
    478000   1.0026309      18.22895       33.841661    
    479000   0.98607798     18.387311      33.467993    
    480000   0.97318851     17.770577      33.455337    
    481000   0.967776       17.827197      33.087431    
    482000   0.99729961     18.077113      33.068161    
    483000   1.0044186      18.062234      32.831332    
    484000   1.0186305      17.998151      32.676433    
    485000   0.9947239      18.273029      32.355436    
    486000   0.99694932     17.872455      32.102839    
    487000   1.0185012      17.694074      31.979872    
    488000   1.0508118      18.217868      31.905843    
    489000   0.97177712     18.565811      31.964956    
    490000   0.98892637     17.572639      31.791337    
    491000   1.0164049      18.00847       31.569479    
    492000   1.0234683      18.578392      31.706173    
    493000   0.95815469     17.929508      31.509607    
    494000   1.0472629      18.530876      31.355464    
    495000   1.040912       17.753709      31.229145    
    496000   1.0232026      17.577999      31.180307    
    497000   1.0176137      18.393428      31.040805    
    498000   0.99127718     17.113528      30.7622      
    499000   1.0094108      18.121376      30.612487    
    500000   0.99509227     18.185854      30.268197    
    501000   1.0186741      18.041286      30.255315    
    502000   0.99891117     18.307101      30.189723    
    503000   0.99353064     18.069811      30.191097    
    504000   1.00687        17.998588      30.157203    
    505000   1.0426132      18.117187      29.855919    
    506000   0.99119184     18.095245      29.519586    
    507000   1.0255127      18.021063      29.539048    
    508000   1.0451462      17.913413      29.430559    
    509000   1.0238554      18.138069      29.595949    
    510000   1.0224299      18.10883       29.387517    
    511000   0.99957223     17.689862      29.05684     
    512000   1.0231556      17.949326      28.88525     
    513000   1.0258699      17.713365      28.880131    
    514000   0.99931913     17.883942      28.840381    
    515000   1.0047978      18.029509      28.576097    
    516000   1.0220195      17.700514      28.552165    
    517000   0.99286714     17.658239      28.147602    
    518000   0.98866742     17.679206      28.009565    
    519000   0.99448582     17.404548      27.739737    
    520000   0.97122285     18.229258      27.789661    
    521000   0.99233038     17.723444      27.500641    
    522000   1.01508        17.096609      27.20633     
    523000   1.020226       16.898958      27.04121     
    524000   1.0214887      17.89427       27.112169    
    525000   1.0148266      17.93881       26.841089    
    526000   1.0051062      18.084474      26.665035    
    527000   0.97872352     17.557943      26.558311    
    528000   0.96273907     18.05865       26.255075    
    529000   0.99313287     17.864382      26.322424    
    530000   1.0351642      17.641119      26.103874    
    531000   1.0093102      17.895923      25.894798    
    532000   1.0131267      17.906387      25.84567     
    533000   0.98566106     18.153389      25.951062    
    534000   1.0526009      18.270277      25.827201    
    535000   0.98601524     18.078288      25.626225    
    536000   1.0332086      18.31867       25.632877    
    537000   0.9597396      18.721936      25.569457    
    538000   1.0370701      18.170827      25.404923    
    539000   1.0261648      18.047922      25.036474    
    540000   1.0073826      17.168706      24.636208    
    541000   0.98560686     17.708788      24.275514    
    542000   1.0381705      17.985465      24.185374    
    543000   1.0394495      18.784119      24.153044    
    544000   1.0197727      18.154534      24.134919    
    545000   0.98924683     17.8886        24.166737    
    546000   1.023634       17.75202       23.917809    
    547000   1.024306       17.909755      23.320543    
    548000   1.0109192      17.794146      23.106422    
    549000   1.0005544      17.574092      23.154428    
    550000   0.98665638     18.160818      23.035004    
    551000   1.0312992      17.826875      22.904722    
    552000   1.0025344      18.247009      22.681108    
    553000   0.96477577     18.073101      22.659254    
    554000   1.0363082      17.890655      22.367738    
    555000   1.0285073      17.975831      22.352258    
    556000   0.9957736      17.353804      22.365104    
    557000   1.0293414      17.336527      22.343471    
    558000   0.97136936     17.454115      22.477812    
    559000   0.99725903     17.816014      22.474053    
    560000   1.0070399      18.383613      22.072447    
    561000   1.0293278      17.745092      21.948275    
    562000   1.0057221      17.392639      21.753529    
    563000   1.015171       17.244706      21.576656    
    564000   0.97569495     17.746478      21.360565    
    565000   1.0088626      18.11406       21.200296    
    566000   0.9677875      17.937333      20.90361     
    567000   0.99382698     17.615326      20.727842    
    568000   1.0252157      18.478147      20.639689    
    569000   1.0611322      17.756399      20.599501    
    570000   0.98193984     17.118916      20.427373    
    571000   1.003226       17.753023      20.345264    
    572000   0.9975122      18.596471      20.223092    
    573000   0.98419568     18.340485      20.1135      
    574000   1.0122676      18.101256      19.751478    
    575000   0.99748385     17.896741      19.786399    
    576000   0.99503065     17.266247      19.904499    
    577000   0.99749485     17.388108      19.726265    
    578000   0.98812433     17.702831      19.542386    
    579000   1.0494346      17.685412      19.333558    
    580000   1.0380371      17.52397       19.180929    
    581000   0.95054051     18.141406      19.092989    
    582000   0.9708655      18.203036      18.646783    
    583000   0.99713538     17.920897      18.459842    
    584000   1.0182949      17.228581      18.308879    
    585000   0.96884871     16.809085      18.16383     
    586000   1.0183194      18.352488      17.849455    
    587000   0.98746906     18.097103      17.843795    
    588000   1.0113045      17.454208      17.676868    
    589000   1.0631391      17.431844      17.535902    
    590000   1.038646       17.631443      17.551858    
    591000   1.0195773      17.918113      17.183093    
    592000   0.98754689     17.531728      17.243263    
    593000   1.0119049      17.788475      17.127571    
    594000   1.0076436      17.679097      16.902112    
    595000   1.0213818      17.839406      16.57294     
    596000   1.0268082      17.430268      16.493611    
    597000   1.0213673      18.214967      16.534812    
    598000   1.0150559      17.633702      16.246509    
    599000   0.97172294     17.514691      16.134536    
    600000   1.0142113      17.944208      15.955643    
    601000   1.027195       18.203898      15.772315    
    602000   0.97605257     17.407806      15.725555    
    603000   0.98071684     17.719674      15.511007    
    604000   0.99499938     17.351223      15.302353    
    605000   0.98411551     17.459981      15.032001    
    606000   1.0019622      17.912469      15.012382    
    607000   0.99593869     17.627646      14.841161    
    608000   0.97272976     18.088144      14.838872    
    609000   0.9499507      17.835944      14.772048    
    610000   0.99638977     17.708227      14.772157    
    611000   0.95730276     17.75868       14.433566    
    612000   0.98242276     17.049428      14.406628    
    613000   1.0097481      18.292766      14.474888    
    614000   1.0062925      18.47802       14.338562    
    615000   0.94785895     17.795466      14.239897    
    616000   1.0010939      17.289709      14.018627    
    617000   1.0007398      17.134596      13.734446    
    618000   0.99495425     17.18953       13.634077    
    619000   0.9841688      17.230774      13.284612    
    620000   0.96523033     17.48683       13.252655    
    621000   0.96758326     17.258995      13.32661     
    622000   1.0358991      17.16824       13.172444    
    623000   1.0230557      18.330738      13.141447    
    624000   1.0161752      17.734745      12.838738    
    625000   1.0280656      17.964179      12.736757    
    626000   1.0255446      17.242476      12.6073      
    627000   1.0238204      17.319906      12.513661    
    628000   0.9526953      17.20016       12.417067    
    629000   0.98201268     17.49846       12.279682    
    630000   0.98029504     16.972432      12.197622    
    631000   0.98934033     17.685174      12.243241    
    632000   1.0191474      17.249963      12.135677    
    633000   1.0542638      17.133632      12.079164    
    634000   1.0101082      17.396953      11.894363    
    635000   0.98719692     17.025468      11.729872    
    636000   1.0140064      17.632131      11.84393     
    637000   0.99289237     17.493257      11.599527    
    638000   1.027733       17.259155      11.450056    
    639000   0.98285099     17.014042      11.302729    
    640000   1.014485       17.345866      11.20861     
    641000   1.0373923      17.074106      11.34034     
    642000   0.9749249      17.79927       11.111835    
    643000   1.020718       17.008797      11.010873    
    644000   0.98316067     16.98419       10.976382    
    645000   0.98162263     17.300063      10.633952    
    646000   1.0053441      17.267683      10.313881    
    647000   1.0035032      17.326531      10.107985    
    648000   1.0190063      17.136252      9.8264426    
    649000   0.97221414     17.700442      9.9429754    
    650000   1.019345       17.579928      9.6464574    
    651000   1.0421874      17.263189      9.6106771    
    652000   1.0293373      18.239167      9.4571147    
    653000   0.99859669     17.817663      9.2985752    
    654000   0.98943338     16.647176      8.9457961    
    655000   0.99105031     17.709205      8.6643104    
    656000   0.99406372     17.4336        8.4949763    
    657000   0.95344251     17.32774       8.2561228    
    658000   0.98629106     17.33446       8.2312897    
    659000   0.96622077     17.36171       8.1253037    
    660000   1.0011468      17.156866      7.9037425    
    661000   1.0090565      17.408473      7.8292143    
    662000   1.0480214      17.186272      7.3739346    
    663000   1.044837       17.041757      7.1504669    
Fix halt condition for fix-id 3 met on step 664000 with value 6.95090247087453 (src/fix_halt.cpp:237)
    664000   1.0191439      17.42218       6.9509025    
Loop time of 683.35 on 2 procs for 564000 steps with 901 atoms

Performance: 713098.828 tau/day, 825.346 timesteps/s
119.7% CPU use with 1 MPI tasks x 2 OpenMP threads

MPI task timing breakdown:
Section |  min time  |  avg time  |  max time  |%varavg| %total
---------------------------------------------------------------
Pair    | 91.305     | 91.305     | 91.305     |   0.0 | 13.36
Bond    | 10.466     | 10.466     | 10.466     |   0.0 |  1.53
Neigh   | 555.28     | 555.28     | 555.28     |   0.0 | 81.26
Comm    | 0.16231    | 0.16231    | 0.16231    |   0.0 |  0.02
Output  | 1.6224     | 1.6224     | 1.6224     |   0.0 |  0.24
Modify  | 22.943     | 22.943     | 22.943     |   0.0 |  3.36
Other   |            | 1.567      |            |       |  0.23

Nlocal:            901 ave         901 max         901 min
Histogram: 1 0 0 0 0 0 0 0 0 0
Nghost:              0 ave           0 max           0 min
Histogram: 1 0 0 0 0 0 0 0 0 0
Neighs:         171126 ave      171126 max      171126 min
Histogram: 1 0 0 0 0 0 0 0 0 0

Total # of neighbors = 171126
Ave neighs/atom = 189.92897
Ave special neighs/atom = 1.9977802
Neighbor list builds = 5520
Dangerous builds = 0

# This simulation is done
# Move onto the next one
clear
  using 2 OpenMP thread(s) per MPI task
package omp 0
using multi-threaded neighbor list subroutines
next f
jump SELF

###
# Reference paper:
# K. Kremer and G. S. Grest
# Dynamics of entangled linear polymer melts: A molecular-dynamics simulation
# J Chem Phys 92, 5057 (1990)

##################################
# MIHIR: for branched polymers
# LJ minimum first to expand and explore, then collapse
###

###
# Looping through the various N1B4 polymers to simulate,
# define variables to switch through
variable f index bb51nuc1bl25bn4d30tot100V2 bb101nuc1bl50bn4d30tot200V2 bb151nuc1bl75bn4d30tot300V2 bb201nuc1bl100bn4d30tot400V2 bb251nuc1bl125bn4d30tot500V2 bb301nuc1bl150bn4d30tot600V2 bb351nuc1bl175bn4d30tot700V2 bb401nuc1bl200bn4d30tot800V2 bb451nuc1bl225bn4d30tot900V2 bb501nuc1bl250bn4d30tot1000V2 bb551nuc1bl275bn4d30tot1100V2 bb601nuc1bl300bn4d30tot1200V2
# variable f index bb51nuc1bl25bn4d30tot100 bb101nuc1bl50bn4d30tot200 bb151nuc1bl75bn4d30tot300 bb201nuc1bl100bn4d30tot400 bb251nuc1bl125bn4d30tot500 bb301nuc1bl150bn4d30tot600 bb351nuc1bl175bn4d30tot700 bb401nuc1bl200bn4d30tot800 bb451nuc1bl225bn4d30tot900 bb501nuc1bl250bn4d30tot1000 bb551nuc1bl275bn4d30tot1100 bb601nuc1bl300bn4d30tot1200
###


###
# Box and units  (use LJ units and periodic boundaries)
###

units lj
log N1B4/trial2/logs/$f.log
log N1B4/trial2/logs/bb501nuc1bl250bn4d30tot1000V2.log
