#atom_style bond #no stiffness
atom_style angle #with stiffness

boundary        p p p
###
# Pair interactions require lists of neighbours to be calculated
###

#neighbor 0.3 bin
neighbor 4 bin

neigh_modify every 1 delay 1 check yes
atom_modify sort 0 0
### Generate RESTART file, SPECIAL format, not a .txt file ###
### Useful if simulation crashes ###

restart 1000000 N1B4/trial2/restarts/$f.restart
restart 1000000 N1B4/trial2/restarts/bb51nuc1bl25bn4d30tot100V2.restart
#############################



### READ "start" data file ###

read_data N1B4/trial2/dats2/$f.dat
read_data N1B4/trial2/dats2/bb51nuc1bl25bn4d30tot100V2.dat
Reading data file ...
  orthogonal box = (-1000 -1000 -1000) to (1000 1000 1000)
  1 by 1 by 1 MPI processor grid
  reading atoms ...
  101 atoms
  scanning bonds ...
  3 = max bonds/atom
  scanning angles ...
  6 = max angles/atom
  reading bonds ...
  100 bonds
  reading angles ...
  102 angles
Finding 1-2 1-3 1-4 neighbors ...
  special bond factors lj:    0        0        0       
  special bond factors coul:  0        0        0       
     4 = max # of 1-2 neighbors
     4 = max # of 1-3 neighbors
     8 = max # of 1-4 neighbors
    12 = max # of special neighbors
  special bonds CPU = 0.002 seconds
  read_data CPU = 0.060 seconds

######################

### READ "REstart" data file ###

######################



###
# Define groups (atom type 1 is group 'all')
###
group all type 1
101 atoms in group all


###
# Dump configs - "simple dumpings"
###

###
# Dump configs + box coords
###

dump   1   all   custom   1000  N1B4/trial2/trjs/$f.lammpstrj  id  x y z  ix iy iz
dump   1   all   custom   1000  N1B4/trial2/trjs/bb51nuc1bl25bn4d30tot100V2.lammpstrj  id  x y z  ix iy iz
dump_modify   1   format line "%d %.5f %.5f %.5f %d %d %d"

########################################################################


###################################################################
# Stiffness term
#
# E = K * (1+cos(theta)), K>0
#
angle_style   cosine
#change this coefficient to change stiffness (e.g. 1,5,10)
angle_coeff   1 1.0
###################################################################

###################################################################
# Pair interaction between non-bonded atoms
#
#  Lennard-Jones 12-6 potential with cutoff:
#  potential E=4epsilon[ (sigma/r)^12 - (sigma/r)^6]  for r<r_cut
#
#  1.12246 = 2^(1/6) is the minimum of the potential


pair_style      lj/cut 1.12246152962189
#pair_style      lj/cut 3

#
#  pair_modify shift yes adds a constant to the potential such

#  that E(r_cut)=0. Forces remains unchanged.
#

pair_modify     shift yes

#
#  pair_coeff for lj/cut, specify 4:
#    * atom type interacting with
#    * atom type
#    * epsilon (energy units)
#    * sigma (distance units)
#

pair_coeff      1 1 1.0 1.0
###################################################################

###################################################################
# Pair interaction between non-bonded atoms
#
#  soft potential, for PUSHING apart overlapping atoms
#  potential E=A*(1 + cos(pi*r/r_c))
#
#  1.12246 = 2^(1/6) is the cut-off r_c

#pair_style     soft 1.12246152962189

#
#  pair_coeff for soft, specify 3:
#    * atom type interacting with
#    * atom type
#    * A
#
#

#pair_coeff      1 1 100.0
###################################################################

###################################################################
# Pair interaction between bonded atoms
#
# Fene potential + Lennard Jones 12-6:

#
#  E= - 0.5 K R0^2 ln[ 1- (r/R0)^2]
#     + 4epsilon[ (sigma/r)^12 - (sigma/r)^6] + epsilon
#

bond_style   fene


#
# For style fene, specify:
#   * bond type
#   * K (energy/distance^2)
#   * R0 (distance)
#   * epsilon (energy)  (LJ component)
#   * sigma (distance)  (LJ component)
#


special_bonds fene #<=== I M P O R T A N T (new command)
Finding 1-2 1-3 1-4 neighbors ...
  special bond factors lj:    0        1        1       
  special bond factors coul:  0        1        1       
     4 = max # of 1-2 neighbors
    12 = max # of special neighbors
  special bonds CPU = 0.003 seconds

bond_coeff   1   30   2   1.0   1.0


###################################################

###################################################################
# Pair interaction between bonded atoms
#
# Harmonic potential:
#
#  E= K * (R-R0)^2
#

#bond_style   harmonic

#
# For style harmonic, specify:
#   * bond type
#   * K (energy/distance^2)
#   * R0 (distance)
#

#bond_coeff   1   60.0   1.0
#bond_coeff   2   harmonic 0.1   1.0

###################################################
compute 1 all gyration
variable rog equal c_1
#compute 2 all coord/atom cutoff 1.1

#dump 2 all custom 10000 contact_number.dump id c_2


###
# Set up fixes
###
thermo_style   custom   step  temp enthalpy c_1
fix 1 all nve   ###NVE ensemble

fix 2 all   langevin   1.0 1.0 1.0  778655   ###Langevin integrator Tstart Tstop 1/friction rndseed


##### Sample thermodynamic info  (temperature, energy, pressure, etc.) #####
thermo 1000









############################################################################

###
# set timestep of integrator

timestep 0.01

###
# run integration for a number of steps
###
#run 0
#variable r equal c_1
#if "$r < 63.1" then "quit 1"

# lj potential minimum, cause molecule to explore
run 100000
Generated 0 of 0 mixed pair_coeff terms from geometric mixing rule
Last active /omp style is angle_style cosine/omp
Neighbor list info ...
  update: every = 1 steps, delay = 1 steps, check = yes
  max neighbors/atom: 2000, page size: 100000
  master list distance cutoff = 5.1224615
  ghost atom cutoff = 5.1224615
  binsize = 2.5612308, bins = 781 781 781
  1 neighbor lists, perpetual/occasional/extra = 1 0 0
  (1) pair lj/cut/omp, perpetual
      attributes: half, newton on, omp
      pair build: half/bin/newton/omp
      stencil: half/bin/3d
      bin: standard
WARNING: Communication cutoff 5.12246152962189 is shorter than a bond length based estimate of 5.455. This may lead to errors. (src/comm.cpp:723)
Per MPI rank memory allocation (min/avg/max) = 1861 | 1861 | 1861 Mbytes
   Step          Temp         Enthalpy         c_1      
         0   0              13.146421      13.488343    
      1000   1.0760307      19.893133      11.085       
      2000   0.92888015     19.947279      10.003322    
      3000   0.95375227     19.920368      9.4527807    
      4000   1.0113773      19.985465      8.5562868    
      5000   0.89045338     20.738769      7.7892994    
      6000   1.0794096      21.484004      7.5127024    
      7000   0.86515488     19.919578      7.934357     
      8000   0.96751277     20.676311      7.8442175    
      9000   1.0193991      19.469385      8.3351951    
     10000   1.0778572      20.329269      8.2965539    
     11000   1.0690101      21.168687      7.4804315    
     12000   1.1286787      19.434483      7.2688393    
     13000   0.87422585     19.330769      6.8801935    
     14000   0.98372025     21.39073       6.1970037    
     15000   0.92781593     20.743271      6.2446698    
     16000   0.96737741     19.426724      6.0599218    
     17000   0.99244827     19.682151      6.018323     
     18000   1.0910064      19.832933      6.3189996    
     19000   0.92861342     20.317448      6.2358021    
     20000   0.89474291     19.992071      6.1898937    
     21000   1.029156       21.524282      5.8043666    
     22000   0.95933299     20.620962      5.4533133    
     23000   0.99352193     19.80768       6.011002     
     24000   1.0214425      21.234994      5.7654595    
     25000   1.0700628      20.577391      5.8630712    
     26000   0.98139933     20.194463      6.1194191    
     27000   0.84136428     20.756293      6.0355875    
     28000   0.98267119     21.357014      6.3725077    
     29000   0.91045154     21.319963      6.4210246    
     30000   0.96014677     20.247881      6.5606689    
     31000   1.085058       20.580194      6.2543338    
     32000   1.2518133      21.525491      6.4902583    
     33000   1.2032007      20.530352      5.6183124    
     34000   1.1044478      22.297947      5.9433023    
     35000   0.98220916     21.161335      6.5084356    
     36000   0.95488953     21.004244      7.1228533    
     37000   1.0463896      19.794332      7.1677535    
     38000   0.91034467     19.247662      7.1525409    
     39000   1.0941985      20.188385      6.9278942    
     40000   0.97344365     21.500314      6.7289871    
     41000   0.98780747     20.141368      6.881935     
     42000   0.96501407     20.181991      6.6730541    
     43000   1.0076618      20.617373      6.3765549    
     44000   1.1675091      21.740516      6.4957759    
     45000   1.0448669      20.422779      6.2040831    
     46000   0.96497952     19.352531      6.0963971    
     47000   0.97978403     20.221198      6.4415742    
     48000   1.103928       19.421357      6.8489328    
     49000   0.94577483     20.466599      6.3501582    
     50000   1.0219682      19.659187      5.7856374    
     51000   1.0130895      20.120642      5.9966057    
     52000   0.96947443     20.926194      5.8476995    
     53000   0.97370808     20.862834      6.7277445    
     54000   0.98864509     20.751281      6.2938637    
     55000   0.91535174     19.821006      6.6848878    
     56000   0.92626459     19.606828      6.781982     
     57000   1.0132735      20.068373      5.8472309    
     58000   0.99953413     19.672103      6.4586423    
     59000   0.95456069     18.842491      6.4105371    
     60000   1.2021783      20.731714      6.1292254    
     61000   1.0881226      18.606923      6.3466755    
     62000   1.0700307      21.246626      6.4159262    
     63000   0.9652112      20.791619      6.2625779    
     64000   1.007344       21.167994      6.1761321    
     65000   0.88102026     21.652495      5.842164     
     66000   0.96943364     21.261979      5.6111034    
     67000   1.0448754      20.529951      5.9588847    
     68000   1.0488806      21.195775      5.842356     
     69000   1.1346         20.779263      6.1113582    
     70000   1.1344144      19.900099      6.3599761    
     71000   1.0687543      21.070113      5.7171845    
     72000   0.94436635     21.006815      5.0244349    
     73000   1.0749039      19.429277      5.3082126    
     74000   1.1001608      21.321337      5.7693805    
     75000   1.1926495      21.037485      5.8137683    
     76000   1.0350991      21.379554      5.8655422    
     77000   0.8887567      19.946551      5.5640976    
     78000   1.0017309      21.839472      5.7415536    
     79000   1.0161784      20.033408      5.6120499    
     80000   1.0356561      20.204531      5.6118927    
     81000   0.96225816     19.683043      5.9998305    
     82000   1.1181814      20.41364       5.6564329    
     83000   1.0073141      20.296007      5.8247029    
     84000   0.99958262     20.433635      5.5814015    
     85000   0.99835957     20.809537      5.1341495    
     86000   1.0742543      20.829042      5.1105911    
     87000   0.9463411      20.67314       5.3373126    
     88000   1.0448826      20.064465      5.6033982    
     89000   1.068173       21.457638      5.3850211    
     90000   0.97942666     21.885346      5.4301262    
     91000   0.99671788     19.643896      5.4838546    
     92000   1.0590895      20.899521      5.1375941    
     93000   1.0398424      19.824059      4.7533608    
     94000   1.0797466      19.937984      5.177814     
     95000   1.1280621      20.3226        5.7878662    
     96000   1.0931135      21.367988      5.8535646    
     97000   0.89509657     20.461569      5.9802586    
     98000   0.91282524     19.692777      5.6058097    
     99000   0.97600192     18.750622      5.4888803    
    100000   1.0574567      20.373713      5.0749448    
Loop time of 265.532 on 2 procs for 100000 steps with 101 atoms

Performance: 325383.946 tau/day, 376.602 timesteps/s
101.0% CPU use with 1 MPI tasks x 2 OpenMP threads

MPI task timing breakdown:
Section |  min time  |  avg time  |  max time  |%varavg| %total
---------------------------------------------------------------
Pair    | 0.32019    | 0.32019    | 0.32019    |   0.0 |  0.12
Bond    | 0.4264     | 0.4264     | 0.4264     |   0.0 |  0.16
Neigh   | 263.74     | 263.74     | 263.74     |   0.0 | 99.32
Comm    | 0.015696   | 0.015696   | 0.015696   |   0.0 |  0.01
Output  | 0.1969     | 0.1969     | 0.1969     |   0.0 |  0.07
Modify  | 0.77487    | 0.77487    | 0.77487    |   0.0 |  0.29
Other   |            | 0.05841    |            |       |  0.02

Nlocal:            101 ave         101 max         101 min
Histogram: 1 0 0 0 0 0 0 0 0 0
Nghost:              0 ave           0 max           0 min
Histogram: 1 0 0 0 0 0 0 0 0 0
Neighs:           1462 ave        1462 max        1462 min
Histogram: 1 0 0 0 0 0 0 0 0 0

Total # of neighbors = 1462
Ave neighs/atom = 14.475248
Ave special neighs/atom = 1.980198
Neighbor list builds = 920
Dangerous builds = 0

# Replace lj potential, now collapse
pair_style      lj/cut 3

# Cutoff simul when gyration under 7
# Variable created with equal requires v_ + 'name'
fix 3 all halt 1000 v_rog < 7

run 5000000
Generated 0 of 0 mixed pair_coeff terms from geometric mixing rule
Last active /omp style is angle_style cosine/omp
Per MPI rank memory allocation (min/avg/max) = 1861 | 1861 | 1861 Mbytes
   Step          Temp         Enthalpy         c_1      
    100000   1.0574567      19.169271      5.0749448    
Fix halt condition for fix-id 3 met on step 101000 with value 3.96003213647161 (src/fix_halt.cpp:237)
    101000   0.95523698     19.449499      3.9600321    
Loop time of 0.974478 on 2 procs for 1000 steps with 101 atoms

Performance: 886628.158 tau/day, 1026.190 timesteps/s
103.5% CPU use with 1 MPI tasks x 2 OpenMP threads

MPI task timing breakdown:
Section |  min time  |  avg time  |  max time  |%varavg| %total
---------------------------------------------------------------
Pair    | 0.011497   | 0.011497   | 0.011497   |   0.0 |  1.18
Bond    | 0.0041701  | 0.0041701  | 0.0041701  |   0.0 |  0.43
Neigh   | 0.94807    | 0.94807    | 0.94807    |   0.0 | 97.29
Comm    | 0.0001653  | 0.0001653  | 0.0001653  |   0.0 |  0.02
Output  | 0.0021167  | 0.0021167  | 0.0021167  |   0.0 |  0.22
Modify  | 0.0079079  | 0.0079079  | 0.0079079  |   0.0 |  0.81
Other   |            | 0.000549   |            |       |  0.06

Nlocal:            101 ave         101 max         101 min
Histogram: 1 0 0 0 0 0 0 0 0 0
Nghost:              0 ave           0 max           0 min
Histogram: 1 0 0 0 0 0 0 0 0 0
Neighs:           3520 ave        3520 max        3520 min
Histogram: 1 0 0 0 0 0 0 0 0 0

Total # of neighbors = 3520
Ave neighs/atom = 34.851485
Ave special neighs/atom = 1.980198
Neighbor list builds = 8
Dangerous builds = 0

# This simulation is done
# Move onto the next one
clear
  using 2 OpenMP thread(s) per MPI task
package omp 0
using multi-threaded neighbor list subroutines
next f
jump SELF

###
# Reference paper:
# K. Kremer and G. S. Grest
# Dynamics of entangled linear polymer melts: A molecular-dynamics simulation
# J Chem Phys 92, 5057 (1990)

##################################
# MIHIR: for branched polymers
# LJ minimum first to expand and explore, then collapse
###

###
# Looping through the various N1B4 polymers to simulate,
# define variables to switch through
variable f index bb51nuc1bl25bn4d30tot100V2 bb101nuc1bl50bn4d30tot200V2 bb151nuc1bl75bn4d30tot300V2 bb201nuc1bl100bn4d30tot400V2 bb251nuc1bl125bn4d30tot500V2 bb301nuc1bl150bn4d30tot600V2 bb351nuc1bl175bn4d30tot700V2 bb401nuc1bl200bn4d30tot800V2 bb451nuc1bl225bn4d30tot900V2 bb501nuc1bl250bn4d30tot1000V2 bb551nuc1bl275bn4d30tot1100V2 bb601nuc1bl300bn4d30tot1200V2
# variable f index bb51nuc1bl25bn4d30tot100 bb101nuc1bl50bn4d30tot200 bb151nuc1bl75bn4d30tot300 bb201nuc1bl100bn4d30tot400 bb251nuc1bl125bn4d30tot500 bb301nuc1bl150bn4d30tot600 bb351nuc1bl175bn4d30tot700 bb401nuc1bl200bn4d30tot800 bb451nuc1bl225bn4d30tot900 bb501nuc1bl250bn4d30tot1000 bb551nuc1bl275bn4d30tot1100 bb601nuc1bl300bn4d30tot1200
###


###
# Box and units  (use LJ units and periodic boundaries)
###

units lj
log N1B4/trial2/logs/$f.log
log N1B4/trial2/logs/bb101nuc1bl50bn4d30tot200V2.log
