#atom_style bond #no stiffness
atom_style angle #with stiffness

boundary        p p p
###
# Pair interactions require lists of neighbours to be calculated
###

#neighbor 0.3 bin
neighbor 4 bin

neigh_modify every 1 delay 1 check yes
atom_modify sort 0 0
### Generate RESTART file, SPECIAL format, not a .txt file ###
### Useful if simulation crashes ###

restart 1000000 N1B4/trial2/restarts/$f.restart
restart 1000000 N1B4/trial2/restarts/bb601nuc1bl300bn4d30tot1200V2.restart
#############################



### READ "start" data file ###

read_data N1B4/trial2/dats2/$f.dat
read_data N1B4/trial2/dats2/bb601nuc1bl300bn4d30tot1200V2.dat
Reading data file ...
  orthogonal box = (-1000 -1000 -1000) to (1000 1000 1000)
  1 by 1 by 1 MPI processor grid
  reading atoms ...
  1201 atoms
  scanning bonds ...
  3 = max bonds/atom
  scanning angles ...
  6 = max angles/atom
  reading bonds ...
  1200 bonds
  reading angles ...
  1202 angles
Finding 1-2 1-3 1-4 neighbors ...
  special bond factors lj:    0        0        0       
  special bond factors coul:  0        0        0       
     4 = max # of 1-2 neighbors
     4 = max # of 1-3 neighbors
     8 = max # of 1-4 neighbors
    12 = max # of special neighbors
  special bonds CPU = 0.002 seconds
  read_data CPU = 0.297 seconds

######################

### READ "REstart" data file ###

######################



###
# Define groups (atom type 1 is group 'all')
###
group all type 1
1201 atoms in group all


###
# Dump configs - "simple dumpings"
###

###
# Dump configs + box coords
###

dump   1   all   custom   1000  N1B4/trial2/trjs/$f.lammpstrj  id  x y z  ix iy iz
dump   1   all   custom   1000  N1B4/trial2/trjs/bb601nuc1bl300bn4d30tot1200V2.lammpstrj  id  x y z  ix iy iz
dump_modify   1   format line "%d %.5f %.5f %.5f %d %d %d"

########################################################################


###################################################################
# Stiffness term
#
# E = K * (1+cos(theta)), K>0
#
angle_style   cosine
#change this coefficient to change stiffness (e.g. 1,5,10)
angle_coeff   1 1.0
###################################################################

###################################################################
# Pair interaction between non-bonded atoms
#
#  Lennard-Jones 12-6 potential with cutoff:
#  potential E=4epsilon[ (sigma/r)^12 - (sigma/r)^6]  for r<r_cut
#
#  1.12246 = 2^(1/6) is the minimum of the potential


pair_style      lj/cut 1.12246152962189
#pair_style      lj/cut 3

#
#  pair_modify shift yes adds a constant to the potential such

#  that E(r_cut)=0. Forces remains unchanged.
#

pair_modify     shift yes

#
#  pair_coeff for lj/cut, specify 4:
#    * atom type interacting with
#    * atom type
#    * epsilon (energy units)
#    * sigma (distance units)
#

pair_coeff      1 1 1.0 1.0
###################################################################

###################################################################
# Pair interaction between non-bonded atoms
#
#  soft potential, for PUSHING apart overlapping atoms
#  potential E=A*(1 + cos(pi*r/r_c))
#
#  1.12246 = 2^(1/6) is the cut-off r_c

#pair_style     soft 1.12246152962189

#
#  pair_coeff for soft, specify 3:
#    * atom type interacting with
#    * atom type
#    * A
#
#

#pair_coeff      1 1 100.0
###################################################################

###################################################################
# Pair interaction between bonded atoms
#
# Fene potential + Lennard Jones 12-6:

#
#  E= - 0.5 K R0^2 ln[ 1- (r/R0)^2]
#     + 4epsilon[ (sigma/r)^12 - (sigma/r)^6] + epsilon
#

bond_style   fene


#
# For style fene, specify:
#   * bond type
#   * K (energy/distance^2)
#   * R0 (distance)
#   * epsilon (energy)  (LJ component)
#   * sigma (distance)  (LJ component)
#


special_bonds fene #<=== I M P O R T A N T (new command)
Finding 1-2 1-3 1-4 neighbors ...
  special bond factors lj:    0        1        1       
  special bond factors coul:  0        1        1       
     4 = max # of 1-2 neighbors
    12 = max # of special neighbors
  special bonds CPU = 0.001 seconds

bond_coeff   1   30   2   1.0   1.0


###################################################

###################################################################
# Pair interaction between bonded atoms
#
# Harmonic potential:
#
#  E= K * (R-R0)^2
#

#bond_style   harmonic

#
# For style harmonic, specify:
#   * bond type
#   * K (energy/distance^2)
#   * R0 (distance)
#

#bond_coeff   1   60.0   1.0
#bond_coeff   2   harmonic 0.1   1.0

###################################################
compute 1 all gyration
variable rog equal c_1
#compute 2 all coord/atom cutoff 1.1

#dump 2 all custom 10000 contact_number.dump id c_2


###
# Set up fixes
###
thermo_style   custom   step  temp enthalpy c_1
fix 1 all nve   ###NVE ensemble

fix 2 all   langevin   1.0 1.0 1.0  778655   ###Langevin integrator Tstart Tstop 1/friction rndseed


##### Sample thermodynamic info  (temperature, energy, pressure, etc.) #####
thermo 1000









############################################################################

###
# set timestep of integrator

timestep 0.01

###
# run integration for a number of steps
###
#run 0
#variable r equal c_1
#if "$r < 63.1" then "quit 1"

# lj potential minimum, cause molecule to explore
run 100000
Generated 0 of 0 mixed pair_coeff terms from geometric mixing rule
Last active /omp style is angle_style cosine/omp
Neighbor list info ...
  update: every = 1 steps, delay = 1 steps, check = yes
  max neighbors/atom: 2000, page size: 100000
  master list distance cutoff = 5.1224615
  ghost atom cutoff = 5.1224615
  binsize = 2.5612308, bins = 781 781 781
  1 neighbor lists, perpetual/occasional/extra = 1 0 0
  (1) pair lj/cut/omp, perpetual
      attributes: half, newton on, omp
      pair build: half/bin/newton/omp
      stencil: half/bin/3d
      bin: standard
WARNING: Communication cutoff 5.12246152962189 is shorter than a bond length based estimate of 5.455. This may lead to errors. (src/comm.cpp:723)
Per MPI rank memory allocation (min/avg/max) = 1862 | 1862 | 1862 Mbytes
   Step          Temp         Enthalpy         c_1      
         0   0              13.251349      157.58589    
      1000   1.0054027      18.034943      157.08638    
      2000   1.0288056      17.753812      156.61157    
      3000   1.0407993      18.099966      156.10086    
      4000   0.99290662     17.937315      155.56201    
      5000   0.96757625     17.697823      154.95637    
      6000   1.0250351      17.83468       154.49895    
      7000   1.0263131      18.445004      154.1141     
      8000   0.98287784     18.61873       153.44494    
      9000   1.0254587      18.518238      153.01768    
     10000   0.98695824     18.170945      152.6903     
     11000   0.9989932      18.457236      152.31194    
     12000   1.0283354      18.605197      151.93504    
     13000   0.99483361     18.56845       151.45955    
     14000   0.97105861     18.683748      151.17864    
     15000   0.98401406     18.484836      151.13993    
     16000   1.0142119      18.496697      150.4747     
     17000   1.0213918      18.855937      150.08481    
     18000   0.98895335     18.935672      149.98929    
     19000   1.0112505      18.808202      149.65522    
     20000   0.99373542     18.644799      149.15039    
     21000   0.99392679     19.003175      148.84962    
     22000   1.021185       18.9869        148.59908    
     23000   0.93644952     18.787488      148.15816    
     24000   0.9667179      18.568292      147.68513    
     25000   1.0391338      19.064881      147.36816    
     26000   0.96441429     18.868038      147.2123     
     27000   0.99223295     19.549615      147.03627    
     28000   1.0187676      18.754989      146.65815    
     29000   0.98137098     18.817625      146.61293    
     30000   0.99958951     19.190124      146.36397    
     31000   1.0048868      19.192538      146.15816    
     32000   1.000213       19.220343      145.80504    
     33000   1.0053055      19.456661      145.5096     
     34000   0.98212031     19.322668      144.94599    
     35000   1.0120261      19.293427      144.84161    
     36000   0.99964641     19.445991      144.73084    
     37000   1.0521996      19.324038      144.48556    
     38000   0.95214561     18.930781      144.3254     
     39000   1.0019375      19.27758       144.14359    
     40000   0.99004808     19.638852      143.80688    
     41000   1.0034229      19.401774      143.43638    
     42000   0.99031249     19.383186      143.33571    
     43000   1.0084875      19.125102      143.21847    
     44000   1.0636539      19.26696       143.08244    
     45000   0.96378059     18.933953      142.84415    
     46000   0.99371046     19.320189      142.5911     
     47000   1.0203736      19.049432      142.29363    
     48000   1.0532346      19.891684      141.97895    
     49000   0.98886889     19.254798      141.60062    
     50000   1.0225018      19.712801      141.30445    
     51000   1.029051       19.620907      141.18326    
     52000   1.0297685      19.527249      140.97212    
     53000   1.0144078      19.701941      140.61096    
     54000   1.029364       19.659292      140.5404     
     55000   1.007685       19.195797      140.4478     
     56000   0.9852321      19.061927      140.24602    
     57000   0.96393046     19.486829      139.88553    
     58000   0.99535284     19.547215      139.71098    
     59000   0.95941411     19.460792      139.678      
     60000   0.98790167     19.732629      139.44197    
     61000   1.0242523      19.650121      139.3172     
     62000   0.97228767     19.74844       139.22285    
     63000   1.0549485      19.519435      138.96208    
     64000   1.0172452      19.557761      138.66684    
     65000   0.99836603     19.516183      138.40723    
     66000   0.99452448     19.620651      138.18964    
     67000   0.96951281     19.637224      137.8885     
     68000   1.0014161      19.624937      137.838      
     69000   0.99519551     19.561976      137.7316     
     70000   0.97255282     19.713827      137.42841    
     71000   1.0103601      19.321136      137.07665    
     72000   0.99424893     19.465667      136.79723    
     73000   1.0057292      19.580068      136.70402    
     74000   0.99106988     19.350443      136.50492    
     75000   1.0042068      19.963882      136.01523    
     76000   1.0033859      19.79561       135.86341    
     77000   1.0221125      20.004959      135.73064    
     78000   0.96561677     18.851896      135.5863     
     79000   0.96456811     19.689539      135.35011    
     80000   0.95572361     19.631253      135.06946    
     81000   0.99663941     19.73463       134.8903     
     82000   0.93817171     19.341149      134.86279    
     83000   0.95462858     19.30848       135.03465    
     84000   1.0003818      19.55482       134.51372    
     85000   1.0122825      20.023425      134.19907    
     86000   1.0174013      19.972501      134.05321    
     87000   0.96880901     20.174659      133.99363    
     88000   1.024366       19.697972      133.73594    
     89000   0.99252848     20.240568      133.65676    
     90000   0.99382285     19.538827      133.42201    
     91000   1.0356839      19.675343      133.33615    
     92000   1.03429        19.694121      133.24256    
     93000   0.97485936     20.156454      133.15285    
     94000   1.0445537      19.941981      132.94024    
     95000   1.0753088      20.152696      132.61383    
     96000   1.0051345      19.772911      132.49735    
     97000   1.0770744      19.839924      132.3418     
     98000   0.9989667      19.485309      131.99308    
     99000   0.97742055     19.585987      131.73428    
    100000   1.0023424      20.119306      131.60304    
Loop time of 298.828 on 2 procs for 100000 steps with 1201 atoms

Performance: 289129.214 tau/day, 334.640 timesteps/s
96.7% CPU use with 1 MPI tasks x 2 OpenMP threads

MPI task timing breakdown:
Section |  min time  |  avg time  |  max time  |%varavg| %total
---------------------------------------------------------------
Pair    | 1.4796     | 1.4796     | 1.4796     |   0.0 |  0.50
Bond    | 3.1553     | 3.1553     | 3.1553     |   0.0 |  1.06
Neigh   | 286.36     | 286.36     | 286.36     |   0.0 | 95.83
Comm    | 0.039664   | 0.039664   | 0.039664   |   0.0 |  0.01
Output  | 0.41706    | 0.41706    | 0.41706    |   0.0 |  0.14
Modify  | 6.935      | 6.935      | 6.935      |   0.0 |  2.32
Other   |            | 0.4379     |            |       |  0.15

Nlocal:           1201 ave        1201 max        1201 min
Histogram: 1 0 0 0 0 0 0 0 0 0
Nghost:              0 ave           0 max           0 min
Histogram: 1 0 0 0 0 0 0 0 0 0
Neighs:           6409 ave        6409 max        6409 min
Histogram: 1 0 0 0 0 0 0 0 0 0

Total # of neighbors = 6409
Ave neighs/atom = 5.3363863
Ave special neighs/atom = 1.9983347
Neighbor list builds = 1105
Dangerous builds = 0

# Replace lj potential, now collapse
pair_style      lj/cut 3

# Cutoff simul when gyration under 7
# Variable created with equal requires v_ + 'name'
fix 3 all halt 1000 v_rog < 7

run 5000000
Generated 0 of 0 mixed pair_coeff terms from geometric mixing rule
Last active /omp style is angle_style cosine/omp
Per MPI rank memory allocation (min/avg/max) = 1862 | 1862 | 1862 Mbytes
   Step          Temp         Enthalpy         c_1      
    100000   1.0023424      19.605152      131.60304    
    101000   0.96297613     19.208575      131.6359     
    102000   0.9697634      19.601003      131.24929    
    103000   0.99862073     19.866044      131.08809    
    104000   1.0196387      19.524659      130.89789    
    105000   0.9821212      19.847893      130.6366     
    106000   1.0199394      19.574547      130.38334    
    107000   1.0242131      19.402095      130.17442    
    108000   1.0279661      19.429438      130.03654    
    109000   1.0048276      19.386697      130.15536    
    110000   0.99345767     19.398646      129.97305    
    111000   0.96517974     19.403914      129.7324     
    112000   1.0180344      19.138323      129.56396    
    113000   1.0369541      19.355952      129.29371    
    114000   1.0060037      18.999976      129.0425     
    115000   0.97963377     19.057409      128.68364    
    116000   0.96080485     19.150292      128.79196    
    117000   0.97486805     19.446757      128.42868    
    118000   0.98637055     19.367419      128.19255    
    119000   1.0154857      19.75477       128.05818    
    120000   1.0226754      19.285156      127.80651    
    121000   0.97439027     19.724216      127.73536    
    122000   1.0227405      19.068589      127.69144    
    123000   1.0560347      19.163584      127.63915    
    124000   1.0594909      19.209299      127.54727    
    125000   1.0469578      19.566167      127.49079    
    126000   0.98813088     19.419143      127.28527    
    127000   0.9698698      19.441486      126.99868    
    128000   0.99413549     18.986122      126.64506    
    129000   0.9968062      19.397115      126.53038    
    130000   1.0220997      19.469222      126.31327    
    131000   0.93395531     18.969285      126.22053    
    132000   0.97842439     19.19927       126.02636    
    133000   0.96138008     19.76314       125.82162    
    134000   1.0244228      19.368563      125.7468     
    135000   1.0354648      19.335463      125.58364    
    136000   0.97442054     19.363729      125.33438    
    137000   0.98784001     19.340369      124.97685    
    138000   1.0243169      19.570255      124.86344    
    139000   0.97741648     19.199336      124.83316    
    140000   1.0118571      18.86307       124.63644    
    141000   0.98349897     19.004025      124.38213    
    142000   1.0137364      19.350731      124.32648    
    143000   1.0489792      18.856956      124.06879    
    144000   0.98037697     18.86372       123.82035    
    145000   1.0262346      19.718905      123.57423    
    146000   1.0349309      19.101769      123.53287    
    147000   1.0003072      19.027275      123.31786    
    148000   0.98848932     19.503966      123.45394    
    149000   1.0381865      19.450582      123.23224    
    150000   0.99336023     19.43305       123.10457    
    151000   0.96276683     19.35305       123.07263    
    152000   0.99253967     19.133108      122.92122    
    153000   0.96676974     18.980273      122.75783    
    154000   1.0010598      19.11184       122.68166    
    155000   1.0186285      18.862664      122.64023    
    156000   0.97447019     19.291858      122.44497    
    157000   1.0350697      19.230708      122.02977    
    158000   0.97759878     19.518735      122.07506    
    159000   0.96423325     19.11317       121.71286    
    160000   1.0015872      18.759347      121.59486    
    161000   0.98796505     19.29755       121.40818    
    162000   0.97897536     19.181142      121.28615    
    163000   1.031105       19.206447      121.26698    
    164000   0.98247209     19.583747      121.14345    
    165000   0.98859863     19.127272      120.9274     
    166000   0.977975       19.243689      120.78013    
    167000   0.98219754     19.173542      120.84002    
    168000   1.0271855      18.993134      120.7897     
    169000   1.0440598      19.552074      120.52644    
    170000   0.96205195     19.269755      120.29059    
    171000   1.0073741      19.686396      119.81167    
    172000   0.98076345     19.309348      119.71184    
    173000   1.0302511      19.387803      119.57885    
    174000   1.0053394      19.017992      119.49107    
    175000   1.0190223      19.061074      119.5134     
    176000   1.0188196      19.029696      119.27787    
    177000   1.032989       18.946884      118.93456    
    178000   0.98838137     19.005617      118.80241    
    179000   0.98863717     19.474262      118.42891    
    180000   1.0375517      19.141847      118.31663    
    181000   1.0033798      18.989252      118.18867    
    182000   0.96980831     19.14485       118.06527    
    183000   0.97451067     18.892883      117.99174    
    184000   1.011892       19.406403      117.97279    
    185000   1.0251052      19.019604      117.65181    
    186000   1.0120387      19.475502      117.49929    
    187000   1.0105528      18.895361      117.2823     
    188000   0.98694464     18.96771       117.28241    
    189000   1.008585       19.473575      117.27982    
    190000   1.0112913      19.026238      117.05206    
    191000   0.97047247     19.143716      116.82122    
    192000   0.99754071     19.1728        116.51704    
    193000   0.98636192     18.842003      116.5296     
    194000   0.97739908     18.940224      116.16039    
    195000   0.97925784     18.831499      116.18351    
    196000   0.9854218      19.007759      115.99819    
    197000   0.96417043     19.182464      115.84797    
    198000   0.98517578     19.134311      115.74255    
    199000   1.0040738      18.923426      115.40769    
    200000   0.98529636     18.473078      115.44327    
    201000   1.014045       19.191771      115.36942    
    202000   1.0620013      19.295072      115.18683    
    203000   1.0262868      19.147999      115.0436     
    204000   0.99289163     18.923703      115.10618    
    205000   1.0105583      19.149473      114.98527    
    206000   1.0182837      19.52471       114.89954    
    207000   1.0122061      19.144296      114.5808     
    208000   0.95948375     18.994118      114.37706    
    209000   0.96777912     18.93045       114.23976    
    210000   0.97402897     19.078404      114.30693    
    211000   1.0145159      19.115924      114.15291    
    212000   0.98604136     19.377646      113.87146    
    213000   1.0093877      19.070617      113.58363    
    214000   0.99751401     19.182656      113.49279    
    215000   0.99280514     18.994127      113.24086    
    216000   1.0261632      19.210817      113.2417     
    217000   1.0104411      18.980381      113.15195    
    218000   1.0046667      18.829479      113.05871    
    219000   0.99689019     18.670546      112.86892    
    220000   0.99047002     18.732407      112.69185    
    221000   0.98115465     18.760138      112.59952    
    222000   1.0373539      19.161433      112.45361    
    223000   1.0019337      18.724714      112.33012    
    224000   0.98873252     18.920302      112.17302    
    225000   1.0069645      18.968924      112.00754    
    226000   0.98748397     18.973775      111.83924    
    227000   1.0375253      19.425084      111.80516    
    228000   1.0534664      18.649501      111.82427    
    229000   0.98561515     19.066821      111.71274    
    230000   0.99353873     19.305177      111.33758    
    231000   0.98740676     19.041576      111.21853    
    232000   1.0199029      19.294572      111.03228    
    233000   0.9940594      19.444823      110.76085    
    234000   0.96785965     19.01606       110.67066    
    235000   1.0312297      18.775411      110.7145     
    236000   1.0423133      18.595205      110.40425    
    237000   1.0057281      18.773219      110.28222    
    238000   1.0011661      19.096894      110.28366    
    239000   0.96252657     19.167933      110.19899    
    240000   0.9831218      18.497925      110.10905    
    241000   1.0320763      19.066585      109.81785    
    242000   1.0134212      19.184227      109.67902    
    243000   1.0314685      19.054175      109.61874    
    244000   0.96194336     18.466226      109.29899    
    245000   1.0176097      19.171216      109.30103    
    246000   1.0153125      19.5881        109.16895    
    247000   1.0337536      19.140627      109.18471    
    248000   1.0086011      19.219568      109.18725    
    249000   0.99551509     18.716626      108.94881    
    250000   0.98315058     18.877752      108.6455     
    251000   1.013703       19.162899      108.51252    
    252000   1.0140637      18.824671      108.30099    
    253000   1.0023236      18.596593      108.15003    
    254000   1.0108748      18.79313       108.08438    
    255000   1.000469       19.126624      108.04586    
    256000   0.97176964     19.276397      108.03084    
    257000   0.9842826      18.094475      107.96553    
    258000   0.99169895     19.178727      107.93915    
    259000   1.0222879      18.446362      107.92439    
    260000   0.962727       19.13656       107.78301    
    261000   0.99566955     18.757492      107.74758    
    262000   0.93873488     18.507588      107.38093    
    263000   1.0025475      18.93031       107.35183    
    264000   1.0645979      19.028835      107.22926    
    265000   0.95245892     18.806478      107.1036     
    266000   0.98067264     18.855785      106.8876     
    267000   1.0143838      19.182408      106.81568    
    268000   1.0243324      19.400394      106.68851    
    269000   1.0076476      18.417725      106.36992    
    270000   1.0142093      18.706246      106.1819     
    271000   0.99243865     19.16567       106.14247    
    272000   1.0074709      18.669726      105.81969    
    273000   1.0227531      18.772289      105.7785     
    274000   1.000347       18.355948      105.63852    
    275000   1.033782       18.441671      105.33688    
    276000   0.97047623     18.887584      105.13713    
    277000   1.0328777      19.175533      104.95389    
    278000   1.0354963      19.303743      104.95353    
    279000   0.99847622     19.475165      104.7799     
    280000   0.98607469     18.65237       104.81857    
    281000   0.99836622     18.83735       104.79152    
    282000   1.0168796      18.771151      104.57797    
    283000   0.99346451     19.209093      104.41889    
    284000   0.9896862      19.056764      104.04671    
    285000   0.9765555      19.145152      103.79169    
    286000   0.972809       18.80464       103.72481    
    287000   1.0008764      19.294603      103.53449    
    288000   1.0045036      18.626826      103.46404    
    289000   1.0125818      18.741839      103.17806    
    290000   1.0300589      19.163411      103.03292    
    291000   1.0224056      18.742427      102.79065    
    292000   0.97965202     19.029808      102.7967     
    293000   0.96695922     18.654964      102.61919    
    294000   0.99615467     19.18138       102.46455    
    295000   0.97596504     18.238155      102.28273    
    296000   0.99936285     18.996663      102.16086    
    297000   0.9746514      18.687013      101.83846    
    298000   0.99927381     18.743386      101.82273    
    299000   0.99798601     19.063675      101.8012     
    300000   0.99307816     18.860212      101.64947    
    301000   1.0103786      18.981317      101.49963    
    302000   1.0385462      18.543086      101.28485    
    303000   0.98447396     18.971762      101.21088    
    304000   0.96322351     18.85605       101.32683    
    305000   1.0158197      18.907935      101.26877    
    306000   1.0096032      18.903917      101.10981    
    307000   0.99252764     18.811981      101.04461    
    308000   0.99835064     19.1027        101.05657    
    309000   1.0375322      18.985046      100.8175     
    310000   0.99754712     18.658882      100.58085    
    311000   1.0011037      18.486311      100.51069    
    312000   0.98013473     18.643075      100.5811     
    313000   0.97326128     18.389795      100.39975    
    314000   1.0350978      19.064409      100.32997    
    315000   1.0232203      18.830383      100.26639    
    316000   0.98599036     18.553135      100.15022    
    317000   0.98737863     18.626744      100.02562    
    318000   1.0319807      19.139304      99.901276    
    319000   0.99951532     18.8305        99.892289    
    320000   1.0202673      19.155584      99.787226    
    321000   0.95879522     18.580738      99.616967    
    322000   0.98223683     18.880177      99.392995    
    323000   0.98986116     19.308158      99.281779    
    324000   1.0022049      18.890012      99.09965     
    325000   0.99689436     18.756009      99.019043    
    326000   1.0386815      18.819639      98.750124    
    327000   0.99402697     18.299759      98.602101    
    328000   1.0032767      18.604001      98.368251    
    329000   0.99471082     19.150873      98.215273    
    330000   0.95817979     18.441876      98.170051    
    331000   1.0007512      18.809763      97.955819    
    332000   0.99321336     18.591359      97.659306    
    333000   1.0190995      18.611751      97.46225     
    334000   0.97039727     18.545614      97.362934    
    335000   1.0063298      18.625108      97.14583     
    336000   0.98747095     19.011982      96.994829    
    337000   1.0452922      18.651675      96.852803    
    338000   1.0354634      18.517138      96.438806    
    339000   0.99245771     18.45366       96.02463     
    340000   0.98166163     18.395276      95.749015    
    341000   1.0196414      18.514988      95.625271    
    342000   1.0367657      18.640521      95.615788    
    343000   0.98026079     19.01739       95.391468    
    344000   1.0431318      18.447976      95.063387    
    345000   0.99506712     18.733349      94.868206    
    346000   0.98299582     18.706022      94.763815    
    347000   1.0044311      18.216534      94.839519    
    348000   0.97423495     19.196796      94.950771    
    349000   0.97784755     18.12066       94.689994    
    350000   1.0473943      18.863018      94.616287    
    351000   1.0070683      18.935111      94.498203    
    352000   0.9780021      18.585675      94.367069    
    353000   0.99261127     18.58          94.229149    
    354000   1.0467823      18.450074      94.026229    
    355000   1.0086921      18.619971      94.070968    
    356000   1.0274007      18.784988      94.158157    
    357000   0.9922767      18.167731      94.007554    
    358000   1.0401433      18.799996      93.96707     
    359000   1.0096614      18.826048      94.108261    
    360000   0.98109366     18.378747      93.884662    
    361000   0.99077837     19.285848      93.878325    
    362000   0.96565005     18.518409      93.825846    
    363000   0.99975984     18.269567      93.609159    
    364000   0.99769013     19.00991       93.663679    
    365000   0.96775073     18.761079      93.391447    
    366000   1.0094722      18.638656      93.179008    
    367000   0.97136029     18.712598      93.087491    
    368000   0.98044901     18.455727      92.984242    
    369000   0.9776226      18.525641      92.796725    
    370000   1.0211392      18.553311      92.676193    
    371000   1.0449115      18.809357      92.655022    
    372000   1.0211294      18.670969      92.46049     
    373000   1.0269611      19.273324      92.511206    
    374000   0.99118985     18.624639      92.325285    
    375000   0.96372281     18.360262      92.164589    
    376000   1.033965       18.786465      92.120482    
    377000   1.038725       18.093767      91.906375    
    378000   1.0139939      18.800736      91.696066    
    379000   1.0240991      18.762108      91.549388    
    380000   0.98873321     18.770218      91.254496    
    381000   1.0268647      18.750832      91.05776     
    382000   1.0160829      18.700742      90.99511     
    383000   1.0048536      18.467424      90.669436    
    384000   1.0207071      18.570569      90.467123    
    385000   0.98391625     18.731043      90.254395    
    386000   1.0087477      18.662286      90.129682    
    387000   1.0253296      18.580143      90.123533    
    388000   1.0208697      18.67099       90.11264     
    389000   0.98704026     18.927706      89.878411    
    390000   1.0363143      18.561955      89.578722    
    391000   0.98544794     18.734331      89.376736    
    392000   0.99850057     18.509063      89.116724    
    393000   0.99663242     18.393878      88.83471     
    394000   1.0433777      19.027122      88.529014    
    395000   0.99539136     19.047333      88.365485    
    396000   1.0275041      18.825308      88.597843    
    397000   0.98513351     18.362303      88.51756     
    398000   0.96817861     18.284539      88.491747    
    399000   1.0108841      18.875799      88.446744    
    400000   0.97927634     18.502701      88.285505    
    401000   1.0067726      18.777291      88.120767    
    402000   0.99589074     18.774143      87.938016    
    403000   0.9805655      18.438852      87.872103    
    404000   0.97602275     18.494511      87.766812    
    405000   1.0037635      18.683217      87.585703    
    406000   1.0216059      18.657153      87.456191    
    407000   0.97356587     18.630777      87.442008    
    408000   0.98827534     18.681385      87.305352    
    409000   0.98268123     18.449442      87.349717    
    410000   0.97335472     18.498048      87.157003    
    411000   0.97553182     18.777566      87.045264    
    412000   1.0275706      18.136223      86.862271    
    413000   1.0312616      18.417495      86.856976    
    414000   0.99013231     18.54269       86.500347    
    415000   0.98192834     18.535363      86.582469    
    416000   0.98662098     18.281618      86.533136    
    417000   1.0039283      18.464778      86.267351    
    418000   1.0386522      18.484343      86.230712    
    419000   1.015914       18.850256      86.190442    
    420000   0.9643724      18.778406      86.104124    
    421000   0.99798276     19.02233       85.998083    
    422000   1.0101182      18.354578      85.734075    
    423000   1.0213251      18.327333      85.807578    
    424000   0.97834698     18.344751      85.805584    
    425000   1.0207989      18.769109      85.449073    
    426000   1.0215343      18.193975      85.077309    
    427000   1.0074938      18.621548      84.754288    
    428000   0.96555797     19.073451      84.606826    
    429000   1.0131344      18.674416      84.544227    
    430000   0.98018327     18.337155      84.429161    
    431000   1.0014099      18.590838      84.314961    
    432000   1.0118884      18.962268      84.166545    
    433000   0.98876565     18.777708      84.074212    
    434000   1.0527667      18.52816       83.818395    
    435000   1.0554856      18.626832      83.819715    
    436000   0.98741064     18.603839      83.650191    
    437000   0.99771106     18.890502      83.495465    
    438000   1.0434715      18.86319       83.542316    
    439000   0.9637221      18.360571      83.455484    
    440000   1.0094398      18.939222      83.194636    
    441000   0.98976263     18.867018      83.051648    
    442000   1.025418       18.735725      82.792417    
    443000   0.97033796     18.101231      82.867874    
    444000   0.98255806     17.967506      82.722202    
    445000   1.0354458      18.550049      82.589146    
    446000   0.95599898     18.345159      82.364421    
    447000   0.98583974     18.111705      82.321548    
    448000   0.97404444     18.615467      82.030945    
    449000   0.98474127     18.13387       81.542289    
    450000   1.0038034      18.386529      81.329243    
    451000   0.97507531     18.538258      81.444673    
    452000   0.99494907     17.95695       81.255079    
    453000   0.99163473     18.564019      80.884158    
    454000   1.0049367      18.19686       80.818374    
    455000   1.0044769      18.589378      80.515247    
    456000   1.0171751      18.619661      80.278202    
    457000   0.99168089     18.895031      80.160709    
    458000   0.9788273      18.530465      80.169721    
    459000   1.0097732      18.721801      80.234098    
    460000   1.0080354      18.887914      80.115277    
    461000   1.0359009      18.581264      80.258729    
    462000   0.99161568     18.78067       80.111772    
    463000   1.0010614      18.580254      79.929078    
    464000   0.9952773      19.01973       79.806885    
    465000   0.96424323     18.688679      79.550735    
    466000   0.99595283     18.45975       79.602853    
    467000   1.0039864      18.706324      79.571936    
    468000   1.0198667      18.577031      79.328797    
    469000   0.9800554      18.545011      79.340093    
    470000   0.99141213     18.337054      79.178811    
    471000   1.0168938      17.961526      78.978853    
    472000   1.031565       18.555869      78.885597    
    473000   1.0104621      17.943638      78.908372    
    474000   0.99528992     18.512156      78.658738    
    475000   1.0153896      17.857961      78.58363     
    476000   0.98917958     17.948385      78.487384    
    477000   0.99976486     18.102914      78.226276    
    478000   1.009189       18.532759      78.107941    
    479000   1.0647788      18.514614      77.811982    
    480000   1.0343518      18.588373      77.545562    
    481000   0.97574882     17.796059      77.522777    
    482000   1.0565704      18.434861      77.566845    
    483000   1.0141052      18.262623      77.338511    
    484000   1.0094819      18.789417      77.428142    
    485000   0.98637761     18.087898      77.28338     
    486000   1.0152157      18.47839       77.357277    
    487000   0.983216       17.953778      77.267997    
    488000   1.0051016      18.225655      77.198854    
    489000   1.0090727      18.387798      77.185036    
    490000   0.9651531      18.677548      76.848292    
    491000   0.97381266     18.278178      76.917005    
    492000   1.0028055      18.567601      76.863607    
    493000   1.0232786      18.10535       76.735039    
    494000   1.086986       18.328987      76.576455    
    495000   1.0237664      18.289938      76.289552    
    496000   1.0115597      18.679608      76.222665    
    497000   0.98264919     18.046041      76.060709    
    498000   1.0063599      18.054197      75.987377    
    499000   1.0324525      18.392515      75.941718    
    500000   1.0012251      18.301197      75.999712    
    501000   1.0236078      18.488755      75.697948    
    502000   0.98318234     18.360955      75.401488    
    503000   0.99178561     18.19716       75.475965    
    504000   0.96492281     17.968716      75.34917     
    505000   0.9963039      18.075398      75.171523    
    506000   1.0131091      18.549718      74.935595    
    507000   1.0356771      18.443136      75.087544    
    508000   1.0169474      18.255556      74.899166    
    509000   0.97340702     18.627817      74.837488    
    510000   0.97691503     18.454371      74.480966    
    511000   1.0430887      18.398167      74.301787    
    512000   1.0007628      17.99749       74.135643    
    513000   1.0114511      18.384227      74.048373    
    514000   0.99706584     18.316337      73.94906     
    515000   0.99066216     18.194368      73.785297    
    516000   0.99784569     18.264527      73.571464    
    517000   1.0104061      18.398208      73.492296    
    518000   1.0371414      18.910599      73.321336    
    519000   0.96900501     17.739649      73.177784    
    520000   0.99599199     18.138206      73.084467    
    521000   1.0327396      18.652218      73.021857    
    522000   0.99566319     18.06303       73.168604    
    523000   0.96800088     18.616725      73.219527    
    524000   1.0126883      17.992401      72.871652    
    525000   0.96247602     18.194705      72.550306    
    526000   0.99443013     18.0834        72.413539    
    527000   1.0026718      18.402793      72.209294    
    528000   1.0286019      18.570148      71.908428    
    529000   0.98573764     17.985034      71.83642     
    530000   1.0153253      18.689079      71.599508    
    531000   0.97799973     18.714943      71.438859    
    532000   1.0306746      18.138203      71.355048    
    533000   0.99550955     18.942018      71.157445    
    534000   0.94201877     18.456462      71.167785    
    535000   0.99952959     18.588952      71.098318    
    536000   1.0372423      18.447688      71.015335    
    537000   0.98632773     18.159744      71.051791    
    538000   1.0027371      18.701676      70.882177    
    539000   0.99518793     17.81404       70.933522    
    540000   0.96504356     18.573699      71.014684    
    541000   1.024113       18.285601      70.818107    
    542000   0.97787595     18.487652      70.752076    
    543000   0.99479083     18.602748      70.57187     
    544000   1.0307427      18.787538      70.632821    
    545000   1.0076018      18.263665      70.524968    
    546000   0.97118891     18.056339      70.582044    
    547000   1.0478547      18.183051      70.343652    
    548000   1.0104096      18.150717      70.180721    
    549000   0.99705596     18.611938      69.982768    
    550000   1.0344306      18.646         70.019702    
    551000   0.98615239     18.264558      69.864185    
    552000   1.0242879      18.51088       69.657976    
    553000   1.0443289      18.316426      69.468565    
    554000   1.0134153      18.420085      69.27248     
    555000   1.0115414      18.915354      69.366798    
    556000   1.025552       18.703404      69.554134    
    557000   0.99296912     18.943998      69.38221     
    558000   0.98255387     18.726275      69.397117    
    559000   1.0467569      18.196533      69.353959    
    560000   1.0365864      18.633211      69.107249    
    561000   0.99420699     18.285485      69.20741     
    562000   0.98001765     18.011527      69.147609    
    563000   0.97217194     18.364567      68.947851    
    564000   0.99574504     18.197136      68.801568    
    565000   0.95567902     17.915299      68.717186    
    566000   1.0450284      18.157516      68.507508    
    567000   1.012647       18.238993      68.341787    
    568000   1.0236537      18.109607      68.195448    
    569000   1.0274383      18.634439      67.988903    
    570000   0.94645806     18.580059      68.14286     
    571000   1.0370964      18.79199       68.082708    
    572000   0.98725609     18.004001      67.870102    
    573000   1.0086541      18.754438      67.742617    
    574000   1.0356199      18.143101      67.543967    
    575000   0.95676297     17.429765      67.288545    
    576000   1.009027       18.071317      67.227153    
    577000   1.0330385      18.145038      67.083451    
    578000   1.0016996      18.435152      66.899873    
    579000   1.0105975      18.003316      66.850608    
    580000   0.96203055     18.496559      66.847311    
    581000   1.0359362      17.549762      66.79931     
    582000   1.0016028      18.457471      66.631801    
    583000   0.9710854      18.112556      66.47175     
    584000   1.0422975      18.747431      66.580323    
    585000   1.0070455      18.013972      66.556717    
    586000   1.0523809      17.78635       66.272306    
    587000   1.0152863      18.291373      66.121483    
    588000   0.97203604     18.040789      65.922773    
    589000   0.98534167     18.370889      65.774221    
    590000   1.0309433      17.615447      65.879193    
    591000   1.0053431      18.11747       65.865762    
    592000   0.99198757     18.204306      65.785503    
    593000   1.0030398      18.460111      65.54211     
    594000   1.0143038      18.229812      65.443195    
    595000   1.0167533      18.320647      65.504198    
    596000   1.0136596      18.165295      65.186184    
    597000   0.97573827     18.401381      64.837862    
    598000   1.0379785      18.347464      64.729648    
    599000   1.0212097      18.49111       64.568525    
    600000   1.0362414      18.007362      64.362479    
    601000   1.020209       18.407374      64.424634    
    602000   1.0102859      18.032209      64.281897    
    603000   1.0156144      18.137851      64.033483    
    604000   1.0100167      18.216541      63.932147    
    605000   0.97089465     17.826468      63.694352    
    606000   1.0087386      17.801659      63.422803    
    607000   1.0103971      18.303676      63.419488    
    608000   0.99337965     18.444984      63.30482     
    609000   0.98589191     18.263963      63.011272    
    610000   0.98617689     18.061461      63.000591    
    611000   0.99779391     18.030325      62.985705    
    612000   1.0233422      18.574942      62.893738    
    613000   0.98289752     18.687944      62.708517    
    614000   0.98684451     18.068006      62.464239    
    615000   0.98158332     17.988915      62.416821    
    616000   0.9897319      18.725362      62.090462    
    617000   1.0177108      18.009699      62.11284     
    618000   0.95840035     18.355089      62.085313    
    619000   1.0143251      18.234501      61.767971    
    620000   0.997487       18.289836      61.484336    
    621000   1.0140982      18.425399      61.413657    
    622000   0.9750186      18.105956      61.501174    
    623000   0.98560333     18.027514      61.281653    
    624000   0.99942993     18.375984      60.923894    
    625000   1.0060322      17.866372      60.941288    
    626000   1.0015746      18.089232      61.044851    
    627000   1.0049869      18.225126      60.888784    
    628000   0.9786462      17.512599      60.880494    
    629000   0.99051078     17.78837       60.904424    
    630000   0.99717477     18.271596      60.823987    
    631000   0.99865695     17.92206       60.846917    
    632000   0.98244377     17.990131      60.626296    
    633000   0.98255124     17.85345       60.428079    
    634000   0.98992571     18.212951      60.293395    
    635000   1.0062206      18.018841      60.165905    
    636000   1.0387571      18.263642      60.04002     
    637000   0.99781418     17.68499       59.981075    
    638000   0.9751458      18.368086      59.674447    
    639000   1.0228897      18.081977      59.375862    
    640000   1.0259837      18.220515      59.047944    
    641000   1.0296         18.019843      58.96341     
    642000   0.95330331     17.868319      58.714008    
    643000   1.0136681      18.362566      58.570953    
    644000   0.93965519     18.048811      58.443175    
    645000   1.0013595      17.901079      58.404348    
    646000   1.022833       18.293079      58.254532    
    647000   0.97243985     18.359734      58.15154     
    648000   0.98335038     17.935715      58.009172    
    649000   0.99386097     18.102287      57.878545    
    650000   1.0002656      18.252922      57.829499    
    651000   0.98502729     18.304141      57.706289    
    652000   1.0131391      18.145027      57.716148    
    653000   0.98603749     17.474711      57.355212    
    654000   1.0008244      18.236247      57.214978    
    655000   0.99911598     17.688629      57.339711    
    656000   1.0131331      18.035306      57.187082    
    657000   0.98340389     17.808494      56.913847    
    658000   0.97404779     18.250944      56.831534    
    659000   1.0350528      17.911313      56.639236    
    660000   1.0262188      18.392267      56.620234    
    661000   0.97748395     17.828963      56.753728    
    662000   0.97840947     18.017321      56.535234    
    663000   1.0251337      18.346506      56.632485    
    664000   1.0147649      17.97672       56.498483    
    665000   0.97654319     18.211572      56.290604    
    666000   0.99983005     17.733507      56.108976    
    667000   1.0188902      18.213489      55.949841    
    668000   1.0062092      17.585621      55.852465    
    669000   0.97192404     18.101017      55.597193    
    670000   1.0129118      18.147803      55.544975    
    671000   0.97708117     17.945461      55.446598    
    672000   0.98422203     18.09227       55.415283    
    673000   0.96622878     18.01015       55.228541    
    674000   0.99116792     18.502959      55.214557    
    675000   0.98476836     17.85993       55.247406    
    676000   1.0144435      18.528679      55.035326    
    677000   0.96009355     17.611836      54.835365    
    678000   1.0132692      18.431122      54.743993    
    679000   1.0125819      17.98624       54.758239    
    680000   1.0114757      18.159545      54.617608    
    681000   1.021372       17.849834      54.400883    
    682000   1.0075506      17.638206      54.388623    
    683000   1.0297727      17.850742      54.208729    
    684000   0.98437328     17.778344      53.734346    
    685000   1.055671       17.741849      53.559981    
    686000   1.0113579      17.902718      53.190734    
    687000   0.98378598     17.985837      53.159468    
    688000   1.0112915      17.759913      53.207878    
    689000   1.011645       17.838984      53.079427    
    690000   0.97268107     17.780692      53.045967    
    691000   0.9978525      18.385283      52.969008    
    692000   1.0072366      17.770941      53.056766    
    693000   1.0109609      17.401298      52.978574    
    694000   0.99220382     18.37621       52.728753    
    695000   1.0550107      17.817469      52.786553    
    696000   1.0162478      17.865472      52.68485     
    697000   1.0077117      18.116932      52.394386    
    698000   1.0155267      17.932606      52.2331      
    699000   0.99624561     18.614761      52.156182    
    700000   0.98639647     17.916046      52.260335    
    701000   1.0059224      18.390039      52.212899    
    702000   1.0021397      17.976463      52.042412    
    703000   1.0056576      17.622335      51.986091    
    704000   0.99805132     18.089269      51.93135     
    705000   1.0222174      18.268172      51.855105    
    706000   1.043433       18.164258      51.692703    
    707000   1.035149       16.97165       51.61456     
    708000   0.999555       17.544113      51.503842    
    709000   0.96438035     17.57245       51.336339    
    710000   1.016444       17.979757      51.353005    
    711000   0.98419576     17.694373      51.495399    
    712000   1.0329638      18.150671      51.374592    
    713000   0.99018895     17.749106      51.105623    
    714000   0.94868855     17.80474       50.800522    
    715000   1.028929       18.355453      50.77514     
    716000   0.97513182     18.188221      50.627635    
    717000   0.96049733     18.112744      50.453331    
    718000   1.0406484      18.244722      50.39309     
    719000   0.99409408     18.237769      50.166433    
    720000   1.006364       17.919475      50.223283    
    721000   1.0011165      18.392404      50.086081    
    722000   0.97926336     17.582058      49.973303    
    723000   0.98553511     17.798735      49.856657    
    724000   1.0246564      18.124959      49.901987    
    725000   0.98416003     18.209985      49.879002    
    726000   1.0628443      18.146892      49.707478    
    727000   0.96420792     17.845097      49.683172    
    728000   1.0174148      18.171772      49.508265    
    729000   1.0249166      17.910295      49.594031    
    730000   0.9736805      18.277131      49.650384    
    731000   1.0175491      18.236547      49.694965    
    732000   0.98336616     18.143254      49.569177    
    733000   0.98383051     17.700115      49.704431    
    734000   0.99243442     18.101225      49.351137    
    735000   1.0035108      18.226691      49.266749    
    736000   1.0123876      18.012581      49.020815    
    737000   0.99529912     17.801711      48.862772    
    738000   1.0187984      18.160663      48.465414    
    739000   1.0490285      18.11218       48.444023    
    740000   1.0417788      17.7051        48.463202    
    741000   0.97093068     17.784623      48.108372    
    742000   1.0081102      17.873225      48.098994    
    743000   0.96749472     18.099523      47.957935    
    744000   1.0116213      18.263403      47.897488    
    745000   0.99593216     17.818842      47.568282    
    746000   1.0139374      17.972171      47.342308    
    747000   1.0081113      17.387151      47.049878    
    748000   0.96883156     17.955436      47.006451    
    749000   1.0244265      17.9667        46.813083    
    750000   1.0203944      17.958781      46.725       
    751000   1.0031302      17.887983      46.796912    
    752000   1.0224765      18.051086      46.834996    
    753000   1.0046041      17.56512       46.846058    
    754000   1.0117485      17.928665      46.752454    
    755000   1.0537698      18.224625      46.668994    
    756000   0.96917967     17.629386      46.418125    
    757000   0.98714665     17.904411      46.51683     
    758000   1.0510456      18.115712      46.571963    
    759000   1.0249557      18.080108      46.45662     
    760000   1.007514       17.94608       46.505633    
    761000   1.0320042      17.794998      46.36081     
    762000   0.9760829      17.868152      46.35756     
    763000   0.98193303     17.296163      46.313637    
    764000   0.98651205     18.088674      46.295138    
    765000   1.0239936      17.695912      46.204075    
    766000   0.99069524     17.862958      46.19334     
    767000   1.0001017      17.984236      46.076927    
    768000   1.0017484      17.933113      45.942812    
    769000   0.9978791      17.621716      45.685395    
    770000   1.0246477      17.668939      45.522841    
    771000   1.004579       17.861554      45.37675     
    772000   0.99821101     17.35117       45.058468    
    773000   1.0332305      18.133731      44.77361     
    774000   1.0077675      18.212264      44.773225    
    775000   0.96399111     18.4369        44.64772     
    776000   0.98040419     17.731244      44.421988    
    777000   1.0121523      17.385085      44.355924    
    778000   1.0034876      18.438403      44.261515    
    779000   1.0289619      18.246074      44.041345    
    780000   1.0069318      18.180222      43.776164    
    781000   1.0043824      17.541307      43.677927    
    782000   0.96790834     17.866521      43.640416    
    783000   0.98399293     17.328462      43.451927    
    784000   1.0252017      17.683432      43.457044    
    785000   1.001805       17.824191      43.143381    
    786000   1.0082504      17.552987      42.888246    
    787000   0.96514778     17.64272       42.764277    
    788000   0.97636069     17.796757      42.481996    
    789000   0.9765181      18.476197      42.343649    
    790000   0.99773448     18.05483       42.414852    
    791000   0.95634203     17.81395       42.172216    
    792000   0.99474356     18.116505      41.867161    
    793000   1.0271641      18.030295      41.604313    
    794000   0.98381876     17.928954      41.453072    
    795000   0.96004345     17.636604      41.363933    
    796000   1.0078515      18.306755      41.190941    
    797000   1.0066546      18.052373      41.065421    
    798000   1.0143595      17.434933      41.080842    
    799000   0.94029817     17.81432       40.984018    
    800000   0.96819601     17.722089      40.67668     
    801000   0.93002708     17.545436      40.632317    
    802000   1.0104441      17.577989      40.759828    
    803000   0.98975335     17.9435        40.618929    
    804000   1.0410088      17.861593      40.333793    
    805000   0.97877095     17.806373      40.305265    
    806000   1.0186388      17.461217      40.112354    
    807000   1.027687       17.909191      40.056703    
    808000   0.97846197     17.980607      39.958522    
    809000   0.98962321     17.710288      39.721143    
    810000   1.0490605      18.106022      39.712717    
    811000   0.98149134     17.792449      39.60421     
    812000   0.96121256     18.099935      39.508089    
    813000   1.0131215      18.26217       39.286175    
    814000   1.0254373      17.376418      39.468536    
    815000   0.99134636     17.965928      39.319003    
    816000   1.0018872      17.624748      39.070975    
    817000   0.99209516     17.627204      38.792041    
    818000   1.0097429      17.876331      38.649199    
    819000   0.97940208     17.653079      38.412864    
    820000   1.0053557      17.788045      38.258905    
    821000   1.0256094      17.638009      38.161927    
    822000   0.96457746     17.867704      38.005998    
    823000   1.0169605      17.955519      37.68884     
    824000   1.0251002      17.306503      37.627573    
    825000   1.0099133      17.914867      37.724499    
    826000   0.97787202     17.918162      37.624864    
    827000   1.0086933      17.688541      37.629824    
    828000   0.95683173     17.595682      37.53491     
    829000   0.98855908     17.349595      37.338385    
    830000   0.9835745      18.131536      37.288278    
    831000   0.97844892     17.770343      37.438133    
    832000   1.0215253      18.419755      37.56435     
    833000   0.99431281     17.795542      37.306416    
    834000   0.99444673     17.859425      37.589222    
    835000   1.0051173      17.730101      37.680012    
    836000   1.0077497      17.796479      37.608322    
    837000   1.0184217      18.43114       37.457467    
    838000   0.97882213     17.513324      37.359424    
    839000   0.9849338      17.332306      37.02881     
    840000   1.0174104      17.574929      37.017257    
    841000   1.0276219      17.574386      37.027328    
    842000   0.99645367     17.309951      36.871003    
    843000   0.98689624     17.951883      36.604182    
    844000   0.98427065     17.648454      36.467263    
    845000   1.0010556      17.470487      36.35804     
    846000   0.9770632      17.858833      36.287701    
    847000   0.98325151     17.629253      36.1147      
    848000   0.98840963     17.338766      35.949327    
    849000   0.98564832     18.131232      35.809544    
    850000   0.96464772     17.841686      35.827008    
    851000   0.98755969     17.846452      35.838978    
    852000   0.99796257     17.362258      35.966414    
    853000   0.99228409     17.727622      35.95024     
    854000   1.0382982      17.780461      35.933769    
    855000   1.0121078      17.894706      35.756655    
    856000   0.99406038     17.097628      35.737285    
    857000   0.96728142     17.868869      35.701447    
    858000   1.0162977      18.065384      35.394386    
    859000   1.0121306      17.975592      35.199627    
    860000   1.0577668      17.550582      35.014461    
    861000   0.98609397     17.946057      34.988707    
    862000   1.0058894      17.815502      34.721622    
    863000   1.0215013      18.318567      34.792675    
    864000   1.0215329      17.941459      34.726151    
    865000   0.99115917     17.792658      34.637061    
    866000   1.0288466      18.217992      34.617414    
    867000   1.0038329      17.839378      34.629255    
    868000   0.97297269     17.410018      34.503647    
    869000   1.0142076      17.599542      34.402463    
    870000   0.98376994     18.166657      34.427745    
    871000   1.0166882      17.741565      34.298377    
    872000   0.99956995     17.375619      34.512311    
    873000   1.0163969      17.47957       34.406823    
    874000   1.0270157      17.941927      34.363945    
    875000   0.99475461     18.085338      34.264494    
    876000   1.0446427      17.617931      33.862779    
    877000   0.98090897     17.914009      33.671358    
    878000   1.041856       17.885042      33.593411    
    879000   1.0217885      17.940017      33.330921    
    880000   0.98560065     17.526471      33.186735    
    881000   1.0346701      17.835533      33.327387    
    882000   1.0234245      17.842856      32.988691    
    883000   1.012047       17.53296       32.807545    
    884000   1.0158813      17.327327      32.830682    
    885000   1.0219983      18.314814      32.859449    
    886000   1.0453436      17.846002      32.767723    
    887000   1.0289471      17.48101       32.71884     
    888000   0.96093827     17.951989      32.624969    
    889000   0.98831359     17.503943      32.325089    
    890000   0.94638058     17.436793      31.985999    
    891000   0.97482421     17.261772      31.698969    
    892000   0.97033501     17.434327      31.425795    
    893000   1.0017336      17.553462      31.343518    
    894000   0.99456283     17.564339      31.378597    
    895000   1.0023223      17.525318      31.261322    
    896000   0.99038395     17.790316      31.256444    
    897000   1.0093354      17.514609      31.263366    
    898000   1.005267       17.921305      31.120249    
    899000   1.0381842      17.549687      30.82049     
    900000   1.0250485      17.869801      30.675797    
    901000   1.0035623      17.490982      30.831227    
    902000   0.98726466     17.202488      30.642369    
    903000   0.9934998      17.655718      30.6001      
    904000   1.0117677      17.871023      30.424817    
    905000   1.0069818      17.709804      30.247066    
    906000   1.0022636      17.651165      30.213694    
    907000   0.98733396     17.394709      30.177649    
    908000   1.0183645      17.383587      30.191595    
    909000   0.99129262     17.678446      30.132874    
    910000   0.97661722     17.841468      29.874364    
    911000   1.0002847      17.462873      29.537413    
    912000   0.99992241     17.70041       29.300796    
    913000   0.97259162     16.783571      29.231534    
    914000   0.99072533     16.91139       29.328303    
    915000   0.96048546     17.16439       29.204236    
    916000   0.9929973      17.459089      28.887645    
    917000   1.0104642      18.102476      28.572748    
    918000   1.0170582      17.651254      28.522192    
    919000   0.97521795     17.4141        28.415131    
    920000   0.99057959     17.33016       28.47573     
    921000   1.0217149      17.976595      28.371038    
    922000   1.0017272      17.804603      28.248761    
    923000   0.96069675     17.407861      28.466205    
    924000   1.0124787      17.320215      28.353739    
    925000   0.98536433     18.255333      28.268034    
    926000   0.91187316     17.476954      28.034916    
    927000   0.9984497      17.09082       27.851888    
    928000   1.0048997      17.410466      27.852424    
    929000   0.9692639      17.232519      27.849151    
    930000   1.0154174      17.609526      27.730857    
    931000   1.0116301      17.833747      27.76295     
    932000   1.026971       17.902718      27.553325    
    933000   1.0051892      17.636154      27.323395    
    934000   0.98247113     17.677498      27.296712    
    935000   0.97440468     17.327402      26.978841    
    936000   1.0108346      18.282877      27.048104    
    937000   1.023203       17.605456      26.870137    
    938000   1.0000715      17.257882      26.742524    
    939000   1.0120206      17.946288      26.423543    
    940000   0.98451982     17.455669      26.173272    
    941000   0.98575892     17.807669      26.155631    
    942000   0.99360811     17.528133      26.125751    
    943000   0.99332523     17.009498      26.083165    
    944000   0.99665272     17.470077      26.187091    
    945000   0.99335643     17.747274      26.097378    
    946000   1.0052483      17.898595      25.832153    
    947000   1.0106346      17.394197      25.664186    
    948000   0.99866645     17.621077      25.432329    
    949000   1.0038313      17.694593      25.380066    
    950000   0.96206285     17.979042      25.312878    
    951000   1.0469154      18.052167      25.191522    
    952000   0.97786703     17.08809       24.951112    
    953000   0.98789975     17.063458      24.890276    
    954000   0.98990934     17.297503      24.898607    
    955000   0.97903317     16.78219       24.633582    
    956000   0.98872301     17.518951      24.529355    
    957000   0.99947059     18.077915      24.524152    
    958000   0.97902534     17.454639      24.439391    
    959000   1.0093772      17.178342      24.546965    
    960000   1.0032529      17.538978      24.478282    
    961000   1.0206186      18.036436      24.432629    
    962000   1.0417561      17.87073       24.342472    
    963000   1.0087245      17.128136      24.200047    
    964000   1.009905       17.190495      24.318151    
    965000   0.98699076     17.583416      24.299878    
    966000   1.0001706      17.547696      24.280778    
    967000   1.033713       17.534208      24.41086     
    968000   0.97510745     17.037643      24.427295    
    969000   1.005528       17.832728      24.266209    
    970000   0.95936809     17.16345       24.064396    
    971000   0.97322151     17.919244      23.940842    
    972000   0.99096105     17.538698      24.013902    
    973000   0.98741719     17.418057      24.023994    
    974000   0.98955805     17.401339      23.922524    
    975000   1.0160812      17.691718      23.7301      
    976000   0.98306718     17.571302      23.649448    
    977000   1.021092       18.187713      23.462392    
    978000   0.99914334     18.098716      23.317909    
    979000   0.98880061     17.989868      23.167445    
    980000   0.99575893     17.504391      22.971276    
    981000   0.98980776     17.34575       22.905998    
    982000   0.97065451     17.736296      22.488941    
    983000   1.0163127      17.41108       22.377411    
    984000   1.0160597      17.556993      22.255892    
    985000   1.0065502      17.984087      22.032565    
    986000   1.0001654      17.564728      21.569622    
    987000   0.97361384     17.178071      21.536691    
    988000   0.9950939      16.879408      21.223438    
    989000   0.9709462      18.042182      21.136479    
    990000   1.022157       17.870768      21.055081    
    991000   1.0067259      17.25537       20.756411    
    992000   1.0175899      17.675619      20.649324    
    993000   1.0200801      17.637646      20.545387    
    994000   0.98090247     17.221167      20.348705    
    995000   0.98676117     17.371892      20.070126    
    996000   0.9807053      17.06993       19.997523    
    997000   0.9921075      17.450189      19.837609    
    998000   1.010152       17.645151      19.526773    
    999000   0.92835747     16.988785      19.523927    
   1000000   1.0167351      17.198177      19.543027    
   1001000   0.99614539     17.334544      19.322144    
   1002000   0.98187806     17.626334      19.113388    
   1003000   0.99701122     17.870466      19.079338    
   1004000   0.98446319     17.582086      18.947211    
   1005000   1.0050414      17.014961      18.825398    
   1006000   0.96811887     17.665769      18.640051    
   1007000   0.98815734     17.483706      18.597495    
   1008000   0.94582639     17.454587      18.513914    
   1009000   1.0177958      17.414831      18.323826    
   1010000   0.93783829     17.424946      18.09815     
   1011000   1.0640797      17.930464      17.896501    
   1012000   1.007156       17.588782      17.905859    
   1013000   1.0043162      17.663396      17.789936    
   1014000   1.0220065      17.258903      17.883384    
   1015000   1.0311275      17.509528      17.72008     
   1016000   0.98687382     17.549222      17.559399    
   1017000   1.0085662      18.081748      17.398804    
   1018000   0.99312281     17.309315      17.485779    
   1019000   1.0599236      17.250434      17.64776     
   1020000   1.0300096      17.122388      17.402702    
   1021000   1.0203435      17.558587      17.16878     
   1022000   1.0156341      17.133454      17.088277    
   1023000   0.96170483     17.056248      16.964373    
   1024000   1.0405258      17.079119      16.947158    
   1025000   1.0256724      18.12413       16.927791    
   1026000   0.99201324     17.019396      16.81159     
   1027000   0.97695646     16.828579      16.636217    
   1028000   0.96348788     17.197271      16.76705     
   1029000   1.0254906      17.644671      16.540612    
   1030000   1.0079516      17.796284      16.432553    
   1031000   1.0274315      16.585816      16.251267    
   1032000   1.0162507      17.705742      16.167967    
   1033000   0.99956229     17.400865      16.052398    
   1034000   0.97169239     17.144125      15.843282    
   1035000   0.96748884     17.252223      16.014964    
   1036000   1.0203141      17.398095      15.988385    
   1037000   1.0070412      17.32124       15.985654    
   1038000   1.0153814      17.077821      15.741993    
   1039000   0.97246286     16.798151      15.637238    
   1040000   0.97020627     17.579138      15.369606    
   1041000   1.0326683      17.336045      15.303202    
   1042000   0.98626883     17.107413      15.064084    
   1043000   1.0281516      16.999272      14.908296    
   1044000   0.99802178     17.069049      15.041622    
   1045000   1.0450328      17.242518      15.084831    
   1046000   1.0014045      17.063219      15.111363    
   1047000   1.0197362      17.801282      14.967435    
   1048000   1.0480722      16.894989      14.835694    
   1049000   0.99319082     17.046492      14.784144    
   1050000   1.0283         17.494027      14.505061    
   1051000   0.99415796     16.625615      14.291322    
   1052000   0.97034687     17.177169      14.316791    
   1053000   0.98102695     17.475643      14.210219    
   1054000   1.0019656      17.410659      14.019172    
   1055000   1.0093163      17.329352      13.662485    
   1056000   0.95302845     17.256379      13.540888    
   1057000   1.0036827      17.180544      13.47275     
   1058000   0.99617377     16.869676      13.343943    
   1059000   0.97277253     17.314601      13.318055    
   1060000   1.043509       17.469379      13.350365    
   1061000   1.0012948      17.577         13.318388    
   1062000   1.0241034      17.187401      13.129151    
   1063000   1.0211879      17.235995      13.278621    
   1064000   0.99521358     17.210717      13.209346    
   1065000   1.0336395      17.298617      13.10797     
   1066000   1.0153495      17.267079      13.186409    
   1067000   0.99412605     17.073878      12.973918    
   1068000   0.99816761     17.355276      12.951871    
   1069000   1.0132961      17.251665      12.790529    
   1070000   1.0091292      17.505755      12.613761    
   1071000   0.99770173     17.332411      12.650051    
   1072000   1.0235749      17.397281      12.438838    
   1073000   1.0023741      16.954549      12.248799    
   1074000   0.99801294     17.027903      12.068157    
   1075000   0.98948466     17.406729      11.867549    
   1076000   1.0147298      16.894197      11.743776    
   1077000   1.000691       17.246842      11.631305    
   1078000   1.0151555      17.143335      11.497672    
   1079000   0.99886144     17.177742      11.560728    
   1080000   0.99565237     17.147289      11.52637     
   1081000   0.9914173      16.910283      11.398331    
   1082000   1.0170853      17.255506      11.189646    
   1083000   0.99616369     17.257542      11.016068    
   1084000   0.99676697     17.576746      10.850063    
   1085000   1.0497402      17.837329      10.796856    
   1086000   0.97519235     17.244146      10.877317    
   1087000   0.98432361     17.34467       10.813676    
   1088000   0.98464089     17.107944      10.673321    
   1089000   0.96826046     17.374697      10.608712    
   1090000   1.0297754      17.562477      10.40404     
   1091000   1.0129646      17.33394       10.182615    
   1092000   1.0089628      17.273818      10.047565    
   1093000   0.98596482     17.278734      9.9065154    
   1094000   0.98593645     17.149392      9.8282336    
   1095000   0.98966121     17.015893      9.6311146    
   1096000   1.0097097      17.176731      9.5214434    
   1097000   1.0278986      17.411747      9.4129505    
   1098000   0.99146349     17.257636      9.2340585    
   1099000   0.9604373      17.431396      9.0084441    
   1100000   0.99815911     17.408553      9.0856031    
   1101000   1.0251512      16.848369      9.0774792    
   1102000   0.99776157     16.830903      9.1706306    
   1103000   1.0227824      17.361917      9.1923723    
   1104000   1.002961       16.532661      9.2850004    
   1105000   1.0377438      17.20535       9.1934812    
   1106000   0.9927575      16.721555      8.9764898    
   1107000   0.98074438     16.922225      8.9040317    
   1108000   0.99068919     17.034684      8.936776     
   1109000   1.0080456      16.989512      9.0520782    
   1110000   1.0376146      16.82304       8.908698     
   1111000   0.96786943     17.115         8.7522947    
   1112000   1.0075706      17.114513      8.8866361    
   1113000   1.0245509      17.117575      8.8283814    
   1114000   1.0271915      16.749824      8.8596237    
   1115000   1.044073       17.327858      8.5666331    
   1116000   1.0051146      16.845912      8.4902862    
   1117000   0.9858408      17.487115      8.4920839    
   1118000   0.96042307     16.734329      8.4759518    
   1119000   1.025835       16.974481      8.4578832    
   1120000   0.9973041      17.108249      8.3404479    
   1121000   1.0205775      17.114197      8.0350151    
   1122000   0.97186512     16.526009      7.9227819    
   1123000   0.99350121     16.873602      7.8372631    
   1124000   1.0221582      17.002196      7.7286278    
   1125000   0.97250588     16.750908      7.5206235    
   1126000   1.0305491      17.639347      7.517556     
   1127000   1.0005565      17.977107      7.4886578    
   1128000   0.99045675     17.059096      7.2566378    
   1129000   1.0109988      17.236556      7.2415588    
   1130000   1.0386721      16.808144      7.2612984    
   1131000   1.0047855      16.889014      7.3037417    
   1132000   0.9717893      16.762754      7.1957355    
Fix halt condition for fix-id 3 met on step 1133000 with value 6.889639105985404 (src/fix_halt.cpp:237)
   1133000   0.99847519     17.010389      6.8896391    
Loop time of 1507.23 on 2 procs for 1033000 steps with 1201 atoms

Performance: 592151.872 tau/day, 685.361 timesteps/s
120.0% CPU use with 1 MPI tasks x 2 OpenMP threads

MPI task timing breakdown:
Section |  min time  |  avg time  |  max time  |%varavg| %total
---------------------------------------------------------------
Pair    | 324.65     | 324.65     | 324.65     |   0.0 | 21.54
Bond    | 31.589     | 31.589     | 31.589     |   0.0 |  2.10
Neigh   | 1072.3     | 1072.3     | 1072.3     |   0.0 | 71.14
Comm    | 0.44446    | 0.44446    | 0.44446    |   0.0 |  0.03
Output  | 4.1951     | 4.1951     | 4.1951     |   0.0 |  0.28
Modify  | 69.5       | 69.5       | 69.5       |   0.0 |  4.61
Other   |            | 4.596      |            |       |  0.30

Nlocal:           1201 ave        1201 max        1201 min
Histogram: 1 0 0 0 0 0 0 0 0 0
Nghost:              0 ave           0 max           0 min
Histogram: 1 0 0 0 0 0 0 0 0 0
Neighs:         286682 ave      286682 max      286682 min
Histogram: 1 0 0 0 0 0 0 0 0 0

Total # of neighbors = 286682
Ave neighs/atom = 238.70275
Ave special neighs/atom = 1.9983347
Neighbor list builds = 10237
Dangerous builds = 0

# This simulation is done
# Move onto the next one
clear
  using 2 OpenMP thread(s) per MPI task
package omp 0
using multi-threaded neighbor list subroutines
next f
jump SELF

Total wall time: 2:27:43
